Gd4 Fe20 P12
1.0
   3.6391960000000001    0.0000000000000000    0.0000000000000002
  -0.0000000000000006   10.2565976075362730   -0.0061810262465283
   0.0000000000000000    0.0000000000000000   11.7767325300000003
Gd Fe P
4 20 12
direct
   0.2500000000000000    0.5806789999999999    0.7046570000000000 Gd
   0.2500000000000000    0.9197870000000000    0.2045590000000000 Gd
   0.7500000000000000    0.4192640000000000    0.2955910000000000 Gd
   0.7500000000000000    0.0803320000000000    0.7955110000000000 Gd
   0.2500000000000000    0.7084070000000000    0.9888290000000000 Fe
   0.2500000000000000    0.7918170000000000    0.4886530000000000 Fe
   0.7500000000000000    0.2913720000000000    0.0114980000000000 Fe
   0.7500000000000000    0.2080050000000000    0.5106160000000000 Fe
   0.2500000000000000    0.4051740000000000    0.4893810000000000 Fe
   0.2500000000000000    0.0943020000000000    0.9899630000000000 Fe
   0.7500000000000000    0.5943960000000000    0.5091610000000000 Fe
   0.7500000000000000    0.9056740000000000    0.0101760000000000 Fe
   0.2500000000000000    0.2191520000000000    0.1767210000000000 Fe
   0.2500000000000000    0.2802040000000000    0.6765740000000000 Fe
   0.7500000000000000    0.7813460000000000    0.8234850000000000 Fe
   0.7500000000000000    0.7195410000000000    0.3231870000000000 Fe
   0.2500000000000000    0.8767720000000000    0.7014359999999999 Fe
   0.2500000000000000    0.6244320000000000    0.2017320000000000 Fe
   0.7500000000000000    0.1240450000000000    0.2984170000000000 Fe
   0.7500000000000000    0.3749510000000000    0.7990860000000000 Fe
   0.2500000000000000    0.4626410000000000    0.9331570000000000 Fe
   0.2500000000000000    0.0369520000000000    0.4318640000000000 Fe
   0.7500000000000000    0.5367880000000000    0.0686580000000000 Fe
   0.7500000000000000    0.9639620000000000    0.5672130000000000 Fe
   0.2500000000000000    0.4214720000000000    0.1137160000000000 P
   0.2500000000000000    0.0782850000000000    0.6129990000000000 P
   0.7500000000000000    0.5783840000000000    0.8881520000000001 P
   0.7500000000000000    0.9218840000000000    0.3865430000000000 P
   0.2500000000000000    0.2647480000000000    0.8716840000000000 P
   0.2500000000000000    0.2347630000000000    0.3712660000000000 P
   0.7500000000000000    0.7353680000000000    0.1283860000000000 P
   0.7500000000000000    0.7662590000000000    0.6278460000000000 P
   0.2500000000000000    0.6000660000000000    0.3959490000000000 P
   0.2500000000000000    0.8999370000000000    0.8958750000000000 P
   0.7500000000000000    0.3986800000000000    0.6033720000000000 P
   0.7500000000000000    0.1001600000000000    0.1040870000000000 P
