Gd1 Be3 Nb2 Fe6
1.0
   4.6039626205710800    0.0000000000000000    6.5239874581603505
   2.0701905468694117    4.1122742646190931    6.5239872051309966
   0.0000000000000000    0.0000000000000000    7.9849162400000004
Gd Be Nb Fe
1 3 2 6
direct
   0.0000000000000000    0.0000000000000000    0.0000000000000000 Gd
   0.5000000000000000    0.5000000000000000    0.5000000000000000 Be
   0.3331110000000000    0.3331110000000000    0.3331110000000000 Be
   0.6668890000000000    0.6668890000000000    0.6668890000000000 Be
   0.1420560000000000    0.1420560000000000    0.1420560000000000 Nb
   0.8579440000000000    0.8579440000000000    0.8579440000000000 Nb
   0.0827310000000000    0.5844660000000000    0.5844660000000000 Fe
   0.5844660000000000    0.5844660000000000    0.0827310000000000 Fe
   0.5844660000000000    0.0827310000000000    0.5844660000000000 Fe
   0.4155340000000000    0.9172690000000000    0.4155340000000000 Fe
   0.9172690000000000    0.4155340000000000    0.4155340000000000 Fe
   0.4155340000000000    0.4155340000000000    0.9172690000000000 Fe
