Gd1 Lu1 Fe3 Os1
1.0
   4.4664352037663608    0.0000000000000000    2.5561539107701350
   1.5017708806673660    4.2063914787632974    2.5561547814687491
   0.0000000000000000    0.0000000000000000    5.1802371000000003
Gd Lu Fe Os
1 1 3 1
direct
   0.2503480000000000    0.2503480000000000    0.2489540000000000 Gd
   0.9996690000000000    0.9996690000000000    0.0009940000000000 Lu
   0.6250000000000000    0.1249480000000000    0.6250510000000000 Fe
   0.1249480000000000    0.6250000000000000    0.6250510000000000 Fe
   0.6250000000000000    0.6250000000000000    0.6250510000000000 Fe
   0.6250329999999999    0.6250329999999999    0.1248990000000000 Os
