Sm1 Gd1 Al2 Fe6 B2
1.0
   5.2033379999999996    0.0000000000000000    0.0000000000000003
  -2.6016689992703337    4.5079729991135116    0.0000000000000003
   0.0000000000000000    0.0000000000000000    6.8637930000000003
Sm Gd Al Fe B
1 1 2 6 2
direct
   0.9999820000000000    0.0000000000000000    0.0000000000000000 Sm
   0.9999880000000000    0.0000000000000000    0.5000000000000000 Gd
   0.3332380000000000    0.6665070000000000    0.0000000000000000 Al
   0.6666666666666666    0.3334930000000000    0.0000000000000000 Al
   0.4999850000000000    0.0000000000000000    0.2969510000000000 Fe
   0.4999820000000000    0.5000000000000000    0.2969290000000000 Fe
   0.9999820000000000    0.5000000000000000    0.2969290000000000 Fe
   0.4999850000000000    0.0000000000000000    0.7030490000000000 Fe
   0.4999820000000000    0.5000000000000000    0.7030710000000000 Fe
   0.9999820000000000    0.5000000000000000    0.7030710000000000 Fe
   0.3332680000000000    0.6665730000000000    0.5000000000000000 B
   0.6666666666666666    0.3334270000000000    0.5000000000000000 B
