Gd6 Fe6 Co17
1.0
   8.3439596847009838    0.0000000000000000   -0.0358408078678778
  -4.1742462981845048    5.8874394142111210   -4.1563538459086438
   0.0000000000000000    0.0000000000000000    8.3440378299999995
Gd Fe Co
6 6 17
direct
   0.7117280000000000    0.0000000000000000    0.2882710000000000 Gd
   0.2878170000000000    0.0014360000000000    0.2878170000000000 Gd
   0.2878170000000000    0.5741970000000000    0.2878170000000000 Gd
   0.2882710000000000    0.0000000000000000    0.7117280000000000 Gd
   0.7121830000000000    0.9985640000000000    0.7121830000000000 Gd
   0.7121830000000000    0.4258040000000000    0.7121830000000000 Gd
   0.0000000000000000    0.0000000000000000    0.0000000000000000 Fe
   0.5000010000000000    0.0000000000000000    0.0000000000000000 Fe
   0.0000000000000000    0.5000010000000000    0.0000000000000000 Fe
   0.5000010000000000    0.5000010000000000    0.0000000000000000 Fe
   0.0000000000000000    0.0000000000000000    0.5000010000000000 Fe
   0.0000000000000000    0.5000010000000000    0.5000010000000000 Fe
   0.6772430000000000    0.3533780000000000    0.0295140000000000 Co
   0.8771810000000000    0.7547410000000000    0.1228190000000000 Co
   0.3705430000000000    0.2475920000000000    0.1246410000000000 Co
   0.8771810000000000    0.2452580000000000    0.1228190000000000 Co
   0.6761830000000000    0.3539910000000000    0.3238160000000000 Co
   0.6761830000000000    0.6460090000000001    0.3238160000000000 Co
   0.9704860000000000    0.6466220000000000    0.3227560000000000 Co
   0.1246410000000000    0.2475920000000000    0.3705430000000000 Co
   0.5000010000000000    0.5000010000000000    0.5000010000000000 Co
   0.8753590000000000    0.7524070000000000    0.6294560000000000 Co
   0.0295140000000000    0.3533780000000000    0.6772430000000000 Co
   0.3238160000000000    0.3539910000000000    0.6761830000000000 Co
   0.3238160000000000    0.6460090000000001    0.6761830000000000 Co
   0.1228190000000000    0.2452580000000000    0.8771810000000000 Co
   0.1228190000000000    0.7547410000000000    0.8771810000000000 Co
   0.6294560000000000    0.7524070000000000    0.8753590000000000 Co
   0.3227560000000000    0.6466220000000000    0.9704860000000000 Co
