Gd2 Co17
1.0
   6.2120196290708449    0.0000000000000000    0.7568057620166837
  -0.6701988290984349    6.1757600247222859   -0.7568048566622189
   0.0000000000000000    0.0000000000000000    6.2579500799999996
Gd Co
2 17
direct
   0.6555569999999999    0.3444430000000000    0.6555580000000000 Gd
   0.3443130000000000    0.6556860000000000    0.3443150000000000 Gd
   0.4999310000000000    0.9998760000000000    0.0001240000000000 Co
   0.7113850000000000    0.7114800000000000    0.0001580000000000 Co
   0.0001240000000000    0.5000680000000000    0.0001240000000000 Co
   0.2885200000000000    0.2886150000000000    0.0001580000000000 Co
   0.0965270000000000    0.9034720000000001    0.0965290000000000 Co
   0.6537840000000000    0.3462160000000000    0.1496770000000000 Co
   0.0001580000000000    0.2886140000000000    0.2885190000000000 Co
   0.7113860000000000    0.9998420000000000    0.2885200000000000 Co
   0.3460060000000000    0.1495750000000000    0.3460050000000000 Co
   0.8504240000000000    0.6539940000000000    0.3460070000000000 Co
   0.0001240000000000    0.9998760000000000    0.4999320000000000 Co
   0.6537840000000000    0.8503230000000001    0.6537830000000000 Co
   0.1496770000000000    0.3462170000000000    0.6537840000000000 Co
   0.2885200000000000    0.9998420000000000    0.7113850000000000 Co
   0.0001580000000000    0.7114800000000000    0.7113850000000000 Co
   0.3460060000000000    0.6539950000000000    0.8504240000000000 Co
   0.9036149999999999    0.0963850000000000    0.9036160000000000 Co
