Gd1 Y5 Co23
1.0
   7.2645400715667403    0.0000000000000000    4.1775769990442999
   2.4597901215633340    6.8354225660349481    4.1775769992413299
   0.0000000000000000    0.0000000000000000    8.3551549999999999
Gd Y Co
1 5 23
direct
   0.7148850000000000    0.7148850000000000    0.2851150000000000 Gd
   0.7132720000000000    0.2875870000000000    0.2867280000000000 Y
   0.2875870000000000    0.7132720000000000    0.7124130000000000 Y
   0.2875870000000000    0.7132720000000000    0.2867280000000000 Y
   0.2862170000000000    0.2862170000000000    0.7137829999999999 Y
   0.7132720000000000    0.2875870000000000    0.7124130000000000 Y
   0.5011390000000000    0.9989980000000001    0.0010020000000000 Co
   0.9989980000000001    0.5011390000000000    0.4988610000000000 Co
   0.9989980000000001    0.5011390000000000    0.0010020000000000 Co
   0.9999180000000000    0.9999180000000000    0.5000820000000000 Co
   0.5011390000000000    0.9989980000000001    0.4988610000000000 Co
   0.4999180000000000    0.4999180000000000    0.0000820000000000 Co
   0.9999460000000000    0.9999460000000000    0.0000540000000000 Co
   0.3222530000000000    0.3222530000000000    0.3223700000000000 Co
   0.3222530000000000    0.3222530000000000    0.0331260000000000 Co
   0.0325000000000000    0.3229310000000000    0.3222860000000000 Co
   0.3229310000000000    0.0325000000000000    0.3222860000000000 Co
   0.6777140000000000    0.6777140000000000    0.6770690000000000 Co
   0.6777140000000000    0.6777140000000000    0.9675000000000000 Co
   0.6776300000000000    0.9668740000000000    0.6777470000000000 Co
   0.9668740000000000    0.6776300000000000    0.6777470000000000 Co
   0.1237380000000000    0.1237380000000000    0.1237730000000000 Co
   0.1237380000000000    0.1237380000000000    0.6287509999999999 Co
   0.6292600000000000    0.1218890000000000    0.1244250000000000 Co
   0.1218890000000000    0.6292600000000000    0.1244250000000000 Co
   0.8755750000000000    0.8755750000000000    0.8781110000000000 Co
   0.8755750000000000    0.8755750000000000    0.3707400000000000 Co
   0.8762270000000000    0.3712490000000000    0.8762620000000000 Co
   0.3712490000000000    0.8762270000000000    0.8762620000000000 Co
