Gd6 Fe4 Co12
1.0
   7.1197050022718704    0.0000000000000000   -2.5171950013829809
  -3.5598520013616453    6.1658450022178224   -2.5171950011097950
   0.0000000000000000    0.0000000000000000    7.5515869999999996
Gd Fe Co
6 4 12
direct
   0.7166700000000000    0.7166700000000000    0.0000000000000000 Gd
   0.2833300000000000    0.0000000000000000    0.2833300000000000 Gd
   0.0000000000000000    0.2833300000000000    0.2833300000000000 Gd
   0.2833300000000000    0.2833300000000000    0.0000000000000000 Gd
   0.7166700000000000    0.0000000000000000    0.7166700000000000 Gd
   0.0000000000000000    0.7166700000000000    0.7166700000000000 Gd
   0.0000000000000000    0.0000000000000000    0.5000000000000000 Fe
   0.0000000000000000    0.5000000000000000    0.0000000000000000 Fe
   0.5000000000000000    0.0000000000000000    0.0000000000000000 Fe
   0.5000000000000000    0.5000000000000000    0.5000000000000000 Fe
   0.3358130000000000    0.3358130000000000    0.6716240000000000 Co
   0.6641870000000000    0.0000000000000000    0.3358130000000000 Co
   0.0000000000000000    0.6641870000000000    0.3358130000000000 Co
   0.6641870000000000    0.3358130000000000    0.0000000000000000 Co
   0.3358130000000000    0.6716240000000000    0.3358130000000000 Co
   0.0000000000000000    0.3358130000000000    0.6641870000000000 Co
   0.3358130000000000    0.6641870000000000    0.0000000000000000 Co
   0.3358130000000000    0.0000000000000000    0.6641870000000000 Co
   0.6716240000000000    0.3358130000000000    0.3358130000000000 Co
   0.6641870000000000    0.6641870000000000    0.3283760000000000 Co
   0.6641870000000000    0.3283760000000000    0.6641870000000000 Co
   0.3283760000000000    0.6641870000000000    0.6641870000000000 Co
