Gd1 Lu2 Fe8 Os1
1.0
   4.8355088644252060    0.0000000000000000    7.2197856213021021
   2.1944000746846082    4.3089168675046938    7.2197855351620897
   0.0000000000000000    0.0000000000000000    8.6895030299999991
Gd Lu Fe Os
1 2 8 1
direct
   0.0000000000000000    0.0000000000000000    0.0000000000000000 Gd
   0.1421070000000000    0.1421070000000000    0.1421070000000000 Lu
   0.8578930000000000    0.8578930000000000    0.8578930000000000 Lu
   0.3328990000000000    0.3328990000000000    0.3328990000000000 Fe
   0.6671010000000001    0.6671010000000001    0.6671010000000001 Fe
   0.0775410000000000    0.5828989999999999    0.5828989999999999 Fe
   0.5828989999999999    0.5828989999999999    0.0775410000000000 Fe
   0.5828989999999999    0.0775410000000000    0.5828989999999999 Fe
   0.4171010000000000    0.9224590000000000    0.4171010000000000 Fe
   0.9224590000000000    0.4171010000000000    0.4171010000000000 Fe
   0.4171010000000000    0.4171010000000000    0.9224590000000000 Fe
   0.5000000000000000    0.5000000000000000    0.5000000000000000 Os
