Gd3 Fe4 Co5
1.0
   4.8570527742468093    0.0000000000000000    1.5308226416265476
   2.1978788413421579    4.2848142456603924    1.4972164638792169
   0.0000000000000000    0.0000000000000000    8.4707307200000006
Gd Fe Co
3 4 5
direct
   0.1400230000000000    0.1401600000000000    0.5797920000000000 Gd
   0.8582640000000000    0.8581299999999999    0.4253430000000000 Gd
   0.9996750000000000    0.9995840000000000    0.0010670000000000 Gd
   0.4152750000000000    0.9227990000000000    0.2466520000000000 Fe
   0.3342410000000000    0.3355020000000000    0.9960170000000000 Fe
   0.6683700000000000    0.6651040000000000    0.9981570000000000 Fe
   0.5010770000000000    0.4969470000000000    0.5008990000000000 Fe
   0.0807580000000000    0.5834210000000000    0.7526100000000000 Co
   0.5832100000000000    0.5834210000000000    0.7526100000000000 Co
   0.5836010000000000    0.0795000000000000    0.7532980000000000 Co
   0.9188050000000000    0.4177160000000000    0.2467780000000000 Co
   0.4167010000000000    0.4177160000000000    0.2467780000000000 Co
