Gd2 Y1 Fe8 Os1
1.0
   4.8631733725395270    0.0000000000000000    1.4832627058583867
   2.2053901823668682    4.3343646586177949    1.4832628179743736
   0.0000000000000000    0.0000000000000000    8.7140735500000002
Gd Y Fe Os
2 1 8 1
direct
   0.1418040000000000    0.1418040000000000    0.5745880000000000 Gd
   0.8581960000000000    0.8581960000000000    0.4254120000000000 Gd
   0.0000000000000000    0.0000000000000000    0.0000000000000000 Y
   0.0771960000000000    0.5827700000000000    0.7572630000000000 Fe
   0.5827700000000000    0.5827700000000000    0.7572630000000000 Fe
   0.5827700000000000    0.0771960000000000    0.7572630000000000 Fe
   0.9228040000000000    0.4172300000000000    0.2427370000000000 Fe
   0.4172300000000000    0.4172300000000000    0.2427370000000000 Fe
   0.4172300000000000    0.9228040000000000    0.2427370000000000 Fe
   0.3330680000000000    0.3330680000000000    0.0007940000000000 Fe
   0.6669320000000000    0.6669320000000000    0.9992060000000000 Fe
   0.5000000000000000    0.5000000000000000    0.5000000000000000 Os
