Gd1 Nb1 Fe12 P7
1.0
   8.8630440000000004    0.0000000000000000    0.0000000000000005
  -4.4315230027337202    7.6756210032467500    0.0000000000000005
   0.0000000000000000    0.0000000000000000    3.5960380000000001
Gd Nb Fe P
1 1 12 7
direct
   0.0000000000000000    0.0000000000000000    0.5000000000000000 Gd
   0.3333333333333333    0.6666666666666666    0.0000000000000000 Nb
   0.7223730000000000    0.9598690000000000    0.0000000000000000 Fe
   0.2374970000000000    0.2776270000000000    0.0000000000000000 Fe
   0.0401310000000000    0.7625030000000000    0.0000000000000000 Fe
   0.9435140000000000    0.4540250000000000    0.0000000000000000 Fe
   0.5105120000000000    0.0564860000000000    0.0000000000000000 Fe
   0.5459750000000000    0.4894880000000000    0.0000000000000000 Fe
   0.1078090000000000    0.3936160000000000    0.5000000000000000 Fe
   0.2858080000000000    0.8921910000000000    0.5000000000000000 Fe
   0.6063840000000000    0.7141920000000000    0.5000000000000000 Fe
   0.7666220000000000    0.2121010000000000    0.5000000000000000 Fe
   0.4454790000000000    0.2333780000000000    0.5000000000000000 Fe
   0.7878990000000000    0.5545210000000000    0.5000000000000000 Fe
   0.9630430000000000    0.2183720000000000    0.0000000000000000 P
   0.2553290000000000    0.0369570000000000    0.0000000000000000 P
   0.7816280000000000    0.7446710000000000    0.0000000000000000 P
   0.0724430000000000    0.6243160000000000    0.5000000000000000 P
   0.5518729999999999    0.9275570000000000    0.5000000000000000 P
   0.3756840000000000    0.4481270000000000    0.5000000000000000 P
   0.6666666666666666    0.3333333333333333    0.0000000000000000 P
