Gd2 Lu4 Fe18 P12
1.0
   3.6630419999999999    0.0000000000000000    0.0000000000000002
  -0.0000000000000006   10.4375239999999998    0.0000000000000006
   0.0000000000000000    0.0000000000000000   12.1728459999999998
Gd Lu Fe P
2 4 18 12
direct
   0.0000000000000000    0.5000000000000000    0.5259990000000000 Gd
   0.5000000000000000    0.0000000000000000    0.4740010000000000 Gd
   0.5000000000000000    0.8204979999999999    0.2070360000000000 Lu
   0.5000000000000000    0.1795020000000000    0.2070360000000000 Lu
   0.0000000000000000    0.6795020000000001    0.7929640000000000 Lu
   0.0000000000000000    0.3204980000000000    0.7929640000000000 Lu
   0.5000000000000000    0.5000000000000000    0.1536460000000000 Fe
   0.0000000000000000    0.0000000000000000    0.8463540000000001 Fe
   0.5000000000000000    0.5000000000000000    0.6997920000000000 Fe
   0.0000000000000000    0.0000000000000000    0.3002080000000000 Fe
   0.0000000000000000    0.5000000000000000    0.9895969999999999 Fe
   0.5000000000000000    0.0000000000000000    0.0104030000000000 Fe
   0.5000000000000000    0.3275660000000000    0.9961700000000000 Fe
   0.5000000000000000    0.6724340000000000    0.9961700000000000 Fe
   0.0000000000000000    0.1724340000000000    0.0038300000000000 Fe
   0.0000000000000000    0.8275660000000000    0.0038300000000000 Fe
   0.5000000000000000    0.2995500000000000    0.4303400000000000 Fe
   0.5000000000000000    0.7004500000000000    0.4303400000000000 Fe
   0.0000000000000000    0.2004500000000000    0.5696600000000001 Fe
   0.0000000000000000    0.7995500000000000    0.5696600000000001 Fe
   0.5000000000000000    0.8816090000000000    0.7083030000000000 Fe
   0.5000000000000000    0.1183910000000000    0.7083030000000000 Fe
   0.0000000000000000    0.6183910000000000    0.2916970000000000 Fe
   0.0000000000000000    0.3816090000000000    0.2916970000000000 Fe
   0.5000000000000000    0.5000000000000000    0.8822220000000000 P
   0.0000000000000000    0.0000000000000000    0.1177780000000000 P
   0.5000000000000000    0.5000000000000000    0.3412160000000000 P
   0.0000000000000000    0.0000000000000000    0.6587840000000000 P
   0.5000000000000000    0.3072880000000000    0.6151410000000000 P
   0.5000000000000000    0.6927120000000000    0.6151410000000000 P
   0.0000000000000000    0.1927120000000000    0.3848590000000000 P
   0.0000000000000000    0.8072880000000000    0.3848590000000000 P
   0.5000000000000000    0.8507680000000000    0.8867890000000000 P
   0.5000000000000000    0.1492320000000000    0.8867890000000000 P
   0.0000000000000000    0.6492320000000000    0.1132110000000000 P
   0.0000000000000000    0.3507680000000000    0.1132110000000000 P
