Ce1 Gd1 Fe14 Si3 C3
1.0
   6.4101969195040649    0.0000000000000000    0.7079538680482248
   0.6340710374331380    6.3787599352788975    0.7079547058538818
   0.0000000000000000    0.0000000000000000    6.4491727000000001
Ce Gd Fe Si C
1 1 14 3 3
direct
   0.3492270000000000    0.3492270000000000    0.3492270000000000 Ce
   0.6527160000000000    0.6527160000000000    0.6527160000000000 Gd
   0.2849240000000000    0.7163850000000000    0.9977660000000000 Fe
   0.7163850000000000    0.9977660000000000    0.2849240000000000 Fe
   0.9977660000000000    0.2849240000000000    0.7163850000000000 Fe
   0.2849240000000000    0.9977660000000000    0.7163850000000000 Fe
   0.9977660000000000    0.7163850000000000    0.2849240000000000 Fe
   0.7163850000000000    0.2849240000000000    0.9977660000000000 Fe
   0.3410990000000000    0.3410990000000000    0.8618430000000000 Fe
   0.3410990000000000    0.8618430000000000    0.3410990000000000 Fe
   0.8618430000000000    0.3410990000000000    0.3410990000000000 Fe
   0.6596330000000000    0.6596330000000000    0.1360010000000000 Fe
   0.6596330000000000    0.1360010000000000    0.6596330000000000 Fe
   0.1360010000000000    0.6596330000000000    0.6596330000000000 Fe
   0.9033350000000000    0.9033350000000000    0.9033350000000000 Fe
   0.0975190000000000    0.0975190000000000    0.0975190000000000 Fe
   0.0003590000000000    0.0003590000000000    0.5004490000000000 Si
   0.0003590000000000    0.5004490000000000    0.0003590000000000 Si
   0.5004490000000000    0.0003590000000000    0.0003590000000000 Si
   0.5029749999999999    0.5029749999999999    0.9926280000000000 C
   0.5029749999999999    0.9926280000000000    0.5029749999999999 C
   0.9926280000000000    0.5029749999999999    0.5029749999999999 C
