Gd6 Co23 N1
1.0
   7.1865650035872255    0.0000000000000000    4.1491650018905082
   2.3955220014976479    6.7755580028865321    4.1491650011169430
   0.0000000000000000    0.0000000000000000    8.2983300000000000
Gd Co N
6 23 1
direct
   0.7033730000000000    0.2966270000000000    0.2966270000000000 Gd
   0.7033730000000000    0.2966270000000000    0.7033730000000000 Gd
   0.7033730000000000    0.7033730000000000    0.2966270000000000 Gd
   0.2966270000000000    0.7033730000000000    0.7033730000000000 Gd
   0.2966270000000000    0.7033730000000000    0.2966270000000000 Gd
   0.2966270000000000    0.2966270000000000    0.7033730000000000 Gd
   0.6320430000000000    0.1226530000000000    0.1226530000000000 Co
   0.1226530000000000    0.6320430000000000    0.1226530000000000 Co
   0.1226530000000000    0.1226530000000000    0.6320430000000000 Co
   0.1226530000000000    0.1226530000000000    0.1226530000000000 Co
   0.3679570000000000    0.8773470000000000    0.8773470000000000 Co
   0.8773470000000000    0.3679570000000000    0.8773470000000000 Co
   0.8773470000000000    0.8773470000000000    0.3679570000000000 Co
   0.8773470000000000    0.8773470000000000    0.8773470000000000 Co
   0.5000000000000000    0.0000000000000000    0.0000000000000000 Co
   0.5000000000000000    0.0000000000000000    0.5000000000000000 Co
   0.5000000000000000    0.5000000000000000    0.0000000000000000 Co
   0.0000000000000000    0.5000000000000000    0.5000000000000000 Co
   0.0000000000000000    0.5000000000000000    0.0000000000000000 Co
   0.0000000000000000    0.0000000000000000    0.5000000000000000 Co
   0.0000000000000000    0.0000000000000000    0.0000000000000000 Co
   0.0334030000000000    0.3221990000000000    0.3221990000000000 Co
   0.3221990000000000    0.0334030000000000    0.3221990000000000 Co
   0.3221990000000000    0.3221990000000000    0.0334030000000000 Co
   0.3221990000000000    0.3221990000000000    0.3221990000000000 Co
   0.9665970000000000    0.6778010000000000    0.6778010000000000 Co
   0.6778010000000000    0.9665970000000000    0.6778010000000000 Co
   0.6778010000000000    0.6778010000000000    0.9665970000000000 Co
   0.6778010000000000    0.6778010000000000    0.6778010000000000 Co
   0.5000000000000000    0.5000000000000000    0.5000000000000000 N
