Gd1 Fe12 Mo1 P7
1.0
   8.8506689999999999    0.0000000000000000    0.0000000000000005
  -4.4253350022979188    7.6649030038190853    0.0000000000000005
   0.0000000000000000    0.0000000000000000    3.5835759999999999
Gd Fe Mo P
1 12 1 7
direct
   0.0000000000000000    0.0000000000000000    0.5000000000000000 Gd
   0.7212890000000000    0.9575450000000000    0.0000000000000000 Fe
   0.2362570000000000    0.2787110000000000    0.0000000000000000 Fe
   0.0424550000000000    0.7637429999999999    0.0000000000000000 Fe
   0.9440730000000001    0.4540490000000000    0.0000000000000000 Fe
   0.5099770000000000    0.0559270000000000    0.0000000000000000 Fe
   0.5459510000000000    0.4900230000000000    0.0000000000000000 Fe
   0.1099910000000000    0.3976970000000000    0.5000000000000000 Fe
   0.2877080000000000    0.8900090000000001    0.5000000000000000 Fe
   0.6023030000000000    0.7122920000000000    0.5000000000000000 Fe
   0.7679310000000000    0.2104880000000000    0.5000000000000000 Fe
   0.4425570000000000    0.2320690000000000    0.5000000000000000 Fe
   0.7895120000000000    0.5574430000000000    0.5000000000000000 Fe
   0.3333333333333333    0.6666666666666666    0.0000000000000000 Mo
   0.9618560000000000    0.2178880000000000    0.0000000000000000 P
   0.2560320000000000    0.0381440000000000    0.0000000000000000 P
   0.7821120000000000    0.7439680000000000    0.0000000000000000 P
   0.0725560000000000    0.6247670000000000    0.5000000000000000 P
   0.5522110000000000    0.9274440000000000    0.5000000000000000 P
   0.3752330000000000    0.4477890000000000    0.5000000000000000 P
   0.6666666666666666    0.3333333333333333    0.0000000000000000 P
