Gd1 Lu2 Fe7 Co2
1.0
   4.8467722400986215    0.0000000000000000    7.0753819065071175
   2.1909999575613681    4.3232758928892112    7.0753817164862935
   0.0000000000000000    0.0000000000000000    8.5762608700000005
Gd Lu Fe Co
1 2 7 2
direct
   0.0001040000000000    0.0001040000000000    0.0001040000000000 Gd
   0.1422800000000000    0.1422800000000000    0.1422800000000000 Lu
   0.8575300000000000    0.8575300000000000    0.8575300000000000 Lu
   0.6672730000000000    0.6672730000000000    0.6672730000000000 Fe
   0.0817900000000000    0.5834220000000000    0.5834220000000000 Fe
   0.5834220000000000    0.5834220000000000    0.0817900000000000 Fe
   0.5834220000000000    0.0817900000000000    0.5834220000000000 Fe
   0.4170020000000000    0.9176630000000000    0.4170020000000000 Fe
   0.9176630000000000    0.4170020000000000    0.4170020000000000 Fe
   0.4170020000000000    0.4170020000000000    0.9176630000000000 Fe
   0.4999720000000000    0.4999720000000000    0.4999720000000000 Co
   0.3325400000000000    0.3325400000000000    0.3325400000000000 Co
