Gd3 Y2 Lu1 Fe18
1.0
   5.0673560000000002    0.0000000000000000    0.0000000000000003
  -2.5336780014889606    4.3884590020658356    0.0000000000000003
   0.0000000000000000    0.0000000000000000   16.0105789999999999
Gd Y Lu Fe
3 2 1 18
direct
   0.3333333333333333    0.6666666666666666    0.9634020000000000 Gd
   0.6666666666666666    0.3333333333333333    0.0365840000000000 Gd
   0.6666666666666666    0.3333333333333333    0.4634380000000000 Gd
   0.3333333333333333    0.6666666666666666    0.7499970000000000 Y
   0.6666666666666666    0.3333333333333333    0.2499890000000000 Y
   0.3333333333333333    0.6666666666666666    0.5366000000000000 Lu
   0.1673920000000000    0.8326080000000000    0.3737120000000000 Fe
   0.1673920000000000    0.3347850000000000    0.3737120000000000 Fe
   0.6652150000000000    0.8326080000000000    0.3737120000000000 Fe
   0.8326040000000000    0.1673960000000000    0.6262700000000000 Fe
   0.8326040000000000    0.6652080000000000    0.6262700000000000 Fe
   0.3347920000000000    0.1673960000000000    0.6262700000000000 Fe
   0.8326100000000000    0.1673900000000000    0.8737110000000000 Fe
   0.8326100000000000    0.6652200000000000    0.8737110000000000 Fe
   0.3347800000000000    0.1673900000000000    0.8737110000000000 Fe
   0.1673790000000000    0.8326210000000001    0.1262980000000000 Fe
   0.1673790000000000    0.3347580000000000    0.1262980000000000 Fe
   0.6652420000000000    0.8326210000000001    0.1262980000000000 Fe
   0.3333333333333333    0.6666666666666666    0.2499820000000000 Fe
   0.6666666666666666    0.3333333333333333    0.7500190000000000 Fe
   0.0000000000000000    0.0000000000000000    0.2499830000000000 Fe
   0.0000000000000000    0.0000000000000000    0.7500150000000000 Fe
   0.0000000000000000    0.0000000000000000    0.5000130000000000 Fe
   0.0000000000000000    0.0000000000000000    0.0000060000000000 Fe
