Gd3 Y3 Fe23
1.0
   7.3716860587114317    0.0000000000000000    4.2425312855701955
  -4.9066676524941109    6.9473332729336024    0.0000000000000005
   0.0000000000000000    0.0000000000000000    8.5256680599999992
Gd Y Fe
3 3 23
direct
   0.5780056000000000    0.2890028000000000    0.7108953700000000 Gd
   0.0001018300000000    0.7110990300000000    0.7108953700000000 Gd
   0.0001018300000000    0.2890028000000000    0.7108953700000000 Gd
   0.4230943700000000    0.7115471900000000    0.2882415000000000 Y
   0.0002113100000000    0.2886641300000000    0.2882415000000000 Y
   0.0002113100000000    0.7115471900000000    0.2882415000000000 Y
   0.6475253200000000    0.3237626600000000    0.0287120200000000 Fe
   0.3518448700000000    0.3242501700000000    0.3239049700000000 Fe
   0.3518448700000000    0.0275947000000000    0.3239049700000000 Fe
   0.6485003400000000    0.3242501700000000    0.3239049700000000 Fe
   0.3511615100000000    0.6755807600000000    0.9732577300000000 Fe
   0.6479957400000000    0.6760267400000000    0.6759775200000000 Fe
   0.6479957400000000    0.9719690000000000    0.6759775200000000 Fe
   0.3520534800000000    0.6760267400000000    0.6759775200000000 Fe
   0.9994655300000000    0.9997327700000000    0.0008017000000000 Fe
   0.2437901500000000    0.1218950800000000    0.6343147700000000 Fe
   0.7565207300000000    0.1218069500000000    0.1216723200000000 Fe
   0.7565207300000000    0.6347137800000000    0.1216723200000000 Fe
   0.2436139000000000    0.1218069500000000    0.1216723200000000 Fe
   0.7563074200000000    0.8781537100000000    0.3655388700000000 Fe
   0.2435249000000000    0.8781737900000000    0.8783013100000000 Fe
   0.2435249000000000    0.3653511100000000    0.8783013100000000 Fe
   0.7563475800000000    0.8781737900000000    0.8783013100000000 Fe
   0.0002151800000000    0.0001075900000000    0.4990203600000000 Fe
   0.5008720500000000    0.5007644600000000    0.4990203600000000 Fe
   0.5008720500000000    0.0001075900000000    0.4990203600000000 Fe
   0.0000800900000000    0.5000400400000000    0.0011116200000000 Fe
   0.4988483300000000    0.9988082900000000    0.0011116200000000 Fe
   0.4988483300000000    0.5000400400000000    0.0011116200000000 Fe
