Gd1 Y1 Ga2 Fe4
1.0
   4.9900399999999996    0.0000000000000000    0.0000000000000003
  -0.0000000000000002    3.9429140000000000    0.0000000000000002
   0.0000000000000000    0.0000000000000000    6.8898560000000000
Gd Y Ga Fe
1 1 2 4
direct
   0.7500000000000000    0.0000000000000000    0.8152060000000000 Gd
   0.2500000000000000    0.0000000000000000    0.1840430000000000 Y
   0.7500000000000000    0.5000010000000000    0.1704620000000000 Ga
   0.2500000000000000    0.5000010000000000    0.8296850000000000 Ga
   0.7500000000000000    0.0000000000000000    0.4071600000000000 Fe
   0.9999520000000000    0.5000010000000000    0.5000200000000000 Fe
   0.5000480000000000    0.5000010000000000    0.5000200000000000 Fe
   0.2500000000000000    0.0000000000000000    0.5934050000000000 Fe
