Gd2 Y2 Fe13 Co1
1.0
   4.9485182149687219    0.0000000000000000    1.0389469336827160
   2.3651950982505396    4.3466872493183653    1.0389468303263911
   0.0000000000000000    0.0000000000000000   12.3044048200000002
Gd Y Fe Co
2 2 13 1
direct
   0.8502750000000000    0.8502750000000000    0.4491730000000000 Gd
   0.1497250000000000    0.1497250000000000    0.5508270000000000 Gd
   0.9474340000000000    0.9474340000000000    0.1576960000000000 Y
   0.0525660000000000    0.0525660000000000    0.8423040000000001 Y
   0.7211980000000000    0.7211980000000000    0.8364060000000000 Fe
   0.2788020000000000    0.2788020000000000    0.1635940000000000 Fe
   0.6124330000000000    0.6124330000000000    0.1627000000000000 Fe
   0.3875670000000000    0.3875670000000000    0.8373000000000000 Fe
   0.0000000000000000    0.5000000000000000    0.0000000000000000 Fe
   0.5000000000000000    0.0000000000000000    0.0000000000000000 Fe
   0.5000000000000000    0.5000000000000000    0.0000000000000000 Fe
   0.3896800000000000    0.3896800000000000    0.3291360000000000 Fe
   0.8915040000000000    0.3896800000000000    0.3291360000000000 Fe
   0.3896800000000000    0.8915040000000000    0.3291360000000000 Fe
   0.6103200000000000    0.6103200000000000    0.6708640000000000 Fe
   0.1084960000000000    0.6103200000000000    0.6708640000000000 Fe
   0.6103200000000000    0.1084960000000000    0.6708640000000000 Fe
   0.5000000000000000    0.5000000000000000    0.5000000000000000 Co
