Sm1 Gd1 Al5 Fe12 C2
1.0
   6.5549193749179739    0.0000000000000000    0.7281014788923480
   0.6098289690559281    6.5264905701730473    0.7281019206777954
   0.0000000000000000    0.0000000000000000    6.5332681499999996
Sm Gd Al Fe C
1 1 5 12 2
direct
   0.6559130000000000    0.6559130000000000    0.6557800000000000 Sm
   0.3419390000000000    0.3419390000000000    0.3443510000000000 Gd
   0.6637640000000000    0.6637640000000000    0.1551920000000000 Al
   0.3352720000000000    0.3352720000000000    0.8469860000000000 Al
   0.9996620000000001    0.9996620000000001    0.4996070000000000 Al
   0.7284940000000000    0.2715550000000000    0.0002080000000000 Al
   0.2715550000000000    0.7284940000000000    0.0002080000000000 Al
   0.6560740000000000    0.1448330000000000    0.6578470000000000 Fe
   0.1448330000000000    0.6560740000000000    0.6578470000000000 Fe
   0.3432180000000000    0.8568570000000000    0.3417350000000000 Fe
   0.8568570000000000    0.3432180000000000    0.3417350000000000 Fe
   0.0971210000000000    0.0971210000000000    0.0935890000000000 Fe
   0.9036970000000000    0.9036970000000000    0.9073340000000000 Fe
   0.0000610000000000    0.4994910000000000    0.0003650000000000 Fe
   0.4994910000000000    0.0000610000000000    0.0003650000000000 Fe
   0.2869870000000000    0.0004320000000000    0.7103400000000000 Fe
   0.0009630000000000    0.7117190000000000    0.2896350000000000 Fe
   0.7117190000000000    0.0009630000000000    0.2896350000000000 Fe
   0.0004320000000000    0.2869870000000000    0.7103400000000000 Fe
   0.4978140000000000    0.0041340000000000    0.4984510000000000 C
   0.0041340000000000    0.4978140000000000    0.4984510000000000 C
