Gd1 Zr2 Fe8 Os1
1.0
   4.7944416077732939    0.0000000000000000    7.1747903520396230
   2.1765999358664976    4.2718943301768437    7.1747903267933584
   0.0000000000000000    0.0000000000000000    8.6292697900000004
Gd Zr Fe Os
1 2 8 1
direct
   0.0000000000000000    0.0000000000000000    0.0000000000000000 Gd
   0.1425950000000000    0.1425950000000000    0.1425950000000000 Zr
   0.8574050000000000    0.8574050000000000    0.8574050000000000 Zr
   0.3332820000000000    0.3332820000000000    0.3332820000000000 Fe
   0.6666666666666666    0.6666666666666666    0.6666666666666666 Fe
   0.0778730000000000    0.5850580000000000    0.5850580000000000 Fe
   0.5850580000000000    0.5850580000000000    0.0778730000000000 Fe
   0.5850580000000000    0.0778730000000000    0.5850580000000000 Fe
   0.4149420000000000    0.9221270000000000    0.4149420000000000 Fe
   0.9221270000000000    0.4149420000000000    0.4149420000000000 Fe
   0.4149420000000000    0.4149420000000000    0.9221270000000000 Fe
   0.5000000000000000    0.5000000000000000    0.5000000000000000 Os
