Gd1 Hf1 Zr2 Fe8
1.0
   4.7996054935911197    0.0000000000000000    7.2492942253818944
   2.1823189158558853    4.2747730854911357    7.2492952526060002
   0.0000000000000000    0.0000000000000000    8.6941635099999992
Gd Hf Zr Fe
1 1 2 8
direct
   0.3749350000000000    0.3749350000000000    0.3749350000000000 Gd
   0.8749670000000001    0.8749670000000001    0.8749670000000001 Hf
   0.9989690000000000    0.9989690000000000    0.9989690000000000 Zr
   0.5006490000000000    0.5006490000000000    0.5006490000000000 Zr
   0.4366370000000000    0.9349750000000000    0.4366370000000000 Fe
   0.9382590000000000    0.4405320000000000    0.9382590000000000 Fe
   0.4366370000000000    0.4366370000000000    0.9349750000000000 Fe
   0.9382590000000000    0.9382590000000000    0.4405320000000000 Fe
   0.1876560000000000    0.1876560000000000    0.1876560000000000 Fe
   0.6875260000000000    0.6875260000000000    0.6875260000000000 Fe
   0.9349750000000000    0.4366370000000000    0.4366370000000000 Fe
   0.4405320000000000    0.9382590000000000    0.9382590000000000 Fe
