Gd2 Lu2 V2 Fe18 P12
1.0
   3.6437569999999999    0.0000000000000000    0.0000000000000002
  -0.0000000000000006   10.3118449999999999    0.0000000000000006
   0.0000000000000000    0.0000000000000000   11.8426209999999994
Gd Lu V Fe P
2 2 2 18 12
direct
   0.2500000000000000    0.5759990000000000    0.7034750000000000 Gd
   0.2500000000000000    0.9240010000000000    0.2034750000000000 Gd
   0.7500000000000000    0.4164990000000000    0.2947250000000000 Lu
   0.7500000000000000    0.0835010000000000    0.7947250000000000 Lu
   0.2500000000000000    0.7031110000000000    0.9888850000000000 V
   0.2500000000000000    0.7968890000000000    0.4888850000000000 V
   0.7500000000000000    0.2965250000000000    0.0114950000000000 Fe
   0.7500000000000000    0.2034750000000000    0.5114950000000000 Fe
   0.2500000000000000    0.3995560000000000    0.4902260000000000 Fe
   0.2500000000000000    0.1004440000000000    0.9902260000000001 Fe
   0.7500000000000000    0.5882860000000000    0.5087770000000000 Fe
   0.7500000000000000    0.9117140000000000    0.0087770000000000 Fe
   0.2500000000000000    0.2240070000000000    0.1759140000000000 Fe
   0.2500000000000000    0.2759930000000000    0.6759140000000000 Fe
   0.7500000000000000    0.7844700000000000    0.8219430000000000 Fe
   0.7500000000000000    0.7155300000000000    0.3219430000000000 Fe
   0.2500000000000000    0.8741960000000000    0.7033420000000000 Fe
   0.2500000000000000    0.6258040000000000    0.2033420000000000 Fe
   0.7500000000000000    0.1235870000000000    0.3008010000000000 Fe
   0.7500000000000000    0.3764130000000000    0.8008010000000000 Fe
   0.2500000000000000    0.4625020000000000    0.9341670000000000 Fe
   0.2500000000000000    0.0374980000000000    0.4341670000000000 Fe
   0.7500000000000000    0.5360760000000000    0.0677280000000000 Fe
   0.7500000000000000    0.9639240000000000    0.5677280000000000 Fe
   0.2500000000000000    0.4236010000000000    0.1143540000000000 P
   0.2500000000000000    0.0763990000000000    0.6143540000000000 P
   0.7500000000000000    0.5755500000000000    0.8854470000000000 P
   0.7500000000000000    0.9244500000000000    0.3854470000000000 P
   0.2500000000000000    0.2658160000000000    0.8685150000000000 P
   0.2500000000000000    0.2341840000000000    0.3685150000000000 P
   0.7500000000000000    0.7381630000000000    0.1283680000000000 P
   0.7500000000000000    0.7618370000000000    0.6283680000000000 P
   0.2500000000000000    0.5885620000000000    0.3954900000000000 P
   0.2500000000000000    0.9114380000000000    0.8954900000000000 P
   0.7500000000000000    0.3918270000000000    0.6063499999999999 P
   0.7500000000000000    0.1081730000000000    0.1063500000000000 P
