Gd2 Ga2 Fe6 C2
1.0
   5.1592079999999996    0.0000000000000000    0.0000000000000003
  -2.5796039976602838    4.4680049964596495    0.0000000000000003
   0.0000000000000000    0.0000000000000000    6.6318440000000001
Gd Ga Fe C
2 2 6 2
direct
   0.0000000000000000    0.0000000000000000    0.0000000000000000 Gd
   0.0000000000000000    0.0000000000000000    0.5000000000000000 Gd
   0.6666666666666666    0.3333333333333333    0.0000000000000000 Ga
   0.3333333333333333    0.6666666666666666    0.0000000000000000 Ga
   0.5000000000000000    0.5000000000000000    0.6934310000000000 Fe
   0.5000000000000000    0.0000000000000000    0.6934310000000000 Fe
   0.0000000000000000    0.5000000000000000    0.6934310000000000 Fe
   0.5000000000000000    0.5000000000000000    0.3065690000000000 Fe
   0.5000000000000000    0.0000000000000000    0.3065690000000000 Fe
   0.0000000000000000    0.5000000000000000    0.3065690000000000 Fe
   0.6666666666666666    0.3333333333333333    0.5000000000000000 C
   0.3333333333333333    0.6666666666666666    0.5000000000000000 C
