Gd2 Be2 Fe15 C3
1.0
   6.3535179971919735    0.0000000000000000    0.7379182841830435
   0.6350452754278033    6.3217013428721307    0.7379190173437929
   0.0000000000000000    0.0000000000000000    6.3824107699999999
Gd Be Fe C
2 2 15 3
direct
   0.6547560000000000    0.6547560000000000    0.6535000000000000 Gd
   0.3452440000000000    0.3452440000000000    0.3465000000000000 Gd
   0.5000000000000000    0.0000000000000000    0.0000000000000000 Be
   0.0000000000000000    0.5000000000000000    0.0000000000000000 Be
   0.0000000000000000    0.0000000000000000    0.5000000000000000 Fe
   0.7185530000000000    0.2814470000000000    0.0000000000000000 Fe
   0.9993590000000000    0.7137160000000000    0.2784520000000000 Fe
   0.2862840000000000    0.0006410000000000    0.7215480000000000 Fe
   0.0006410000000000    0.2862840000000000    0.7215480000000000 Fe
   0.7137160000000000    0.9993590000000000    0.2784520000000000 Fe
   0.2814470000000000    0.7185530000000000    0.0000000000000000 Fe
   0.3438010000000000    0.8585320000000000    0.3354870000000000 Fe
   0.3398720000000000    0.3398720000000000    0.8622510000000000 Fe
   0.8585320000000000    0.3438010000000000    0.3354870000000000 Fe
   0.6561990000000000    0.1414680000000000    0.6645130000000000 Fe
   0.6601280000000000    0.6601280000000000    0.1377490000000000 Fe
   0.1414680000000000    0.6561990000000000    0.6645130000000000 Fe
   0.8996090000000000    0.8996090000000000    0.9069350000000000 Fe
   0.1003910000000000    0.1003910000000000    0.0930650000000000 Fe
   0.5000000000000000    0.5000000000000000    0.0000000000000000 C
   0.0000000000000000    0.5000000000000000    0.5000000000000000 C
   0.5000000000000000    0.0000000000000000    0.5000000000000000 C
