Gd1 Y5 Fe16 Co2
1.0
   5.1199380000000003    0.0000000000000000    0.0000000000000003
  -2.5599689991425398    4.4339969978346252    0.0000000000000003
   0.0000000000000000    0.0000000000000000   16.2210910000000013
Gd Y Fe Co
1 5 16 2
direct
   0.3333333333333333    0.6666666666666666    0.9630550000000000 Gd
   0.6666666666666666    0.3333333333333333    0.0365900000000000 Y
   0.6666666666666666    0.3333333333333333    0.4631590000000000 Y
   0.3333333333333333    0.6666666666666666    0.5368200000000000 Y
   0.3333333333333333    0.6666666666666666    0.7501850000000000 Y
   0.6666666666666666    0.3333333333333333    0.2499990000000000 Y
   0.1665970000000000    0.8334030000000000    0.3722090000000000 Fe
   0.1665970000000000    0.3331940000000000    0.3722090000000000 Fe
   0.6668060000000000    0.8334030000000000    0.3722090000000000 Fe
   0.8333980000000000    0.1666020000000000    0.6277810000000000 Fe
   0.8333980000000000    0.6667950000000000    0.6277810000000000 Fe
   0.3332050000000000    0.1666020000000000    0.6277810000000000 Fe
   0.8333870000000000    0.1666130000000000    0.8725970000000000 Fe
   0.8333870000000000    0.6667729999999999    0.8725970000000000 Fe
   0.3332270000000000    0.1666130000000000    0.8725970000000000 Fe
   0.1667590000000000    0.8332410000000000    0.1275110000000000 Fe
   0.1667590000000000    0.3335170000000000    0.1275110000000000 Fe
   0.6664830000000000    0.8332410000000000    0.1275110000000000 Fe
   0.3333333333333333    0.6666666666666666    0.2500030000000000 Fe
   0.6666666666666666    0.3333333333333333    0.7500350000000000 Fe
   0.0000000000000000    0.0000000000000000    0.2499500000000000 Fe
   0.0000000000000000    0.0000000000000000    0.7500550000000000 Fe
   0.0000000000000000    0.0000000000000000    0.4999760000000000 Co
   0.0000000000000000    0.0000000000000000    0.9998790000000000 Co
