Gd3 Fe5 Co4
1.0
   4.8399632303949014    0.0000000000000000    7.0635870981006841
   2.1964718833961014    4.2692910410556451    7.0915102491221571
   0.0000000000000000    0.0000000000000000    8.5626803299999992
Gd Fe Co
3 5 4
direct
   0.1419680000000000    0.1428920000000000    0.1419680000000000 Gd
   0.0000610000000000    0.0005310000000000    0.0000610000000000 Gd
   0.8590330000000000    0.8592980000000000    0.8590330000000000 Gd
   0.5822820000000000    0.5829540000000000    0.0817140000000000 Fe
   0.4165530000000000    0.9184700000000000    0.4165530000000000 Fe
   0.0817140000000000    0.5829540000000000    0.5822820000000000 Fe
   0.3320110000000000    0.3335930000000000    0.3320110000000000 Fe
   0.6666666666666666    0.6647490000000000    0.6666666666666666 Fe
   0.4185360000000000    0.4174330000000000    0.9184390000000000 Co
   0.9184390000000000    0.4174330000000000    0.4185360000000000 Co
   0.5832560000000000    0.0789220000000000    0.5832560000000000 Co
   0.4994670000000000    0.5007720000000000    0.4994670000000000 Co
