Gd9 Y1 Fe20
1.0
   8.6922227478588550    0.0000000000000000   -1.4556710555856491
  -6.2216680040127033    6.0694127573375916   -1.4616101518573172
   0.0000000000000000    0.0000000000000000    8.8158524899999993
Gd Y Fe
9 1 20
direct
   0.9999310000000000    0.0000800000000000    0.0000130000000000 Gd
   0.2498540000000000    0.7493700000000000    0.4997150000000000 Gd
   0.0485400000000000    0.1487870000000000    0.6995990000000000 Gd
   0.4490620000000000    0.3495230000000000    0.3001850000000000 Gd
   0.6503960000000000    0.9510780000000000    0.0998770000000000 Gd
   0.8519400000000000    0.5511280000000000    0.9006729999999999 Gd
   0.2014480000000000    0.6003030000000000    0.8000200000000000 Gd
   0.8004300000000000    0.4011860000000000    0.2001050000000000 Gd
   0.5984710000000000    0.7987310000000000    0.3987200000000000 Gd
   0.3998970000000000    0.1997700000000000    0.6010130000000000 Y
   0.7248840000000000    0.6754030000000000    0.1502870000000000 Fe
   0.5257910000000000    0.5766289999999999    0.8511570000000001 Fe
   0.4255410000000000    0.2756220000000000    0.9523070000000000 Fe
   0.3246340000000000    0.4748550000000000    0.0494510000000000 Fe
   0.7266650000000000    0.1744400000000000    0.6498119999999999 Fe
   0.5256390000000000    0.0747810000000000    0.3490510000000000 Fe
   0.9244329999999999    0.2749420000000000    0.4495420000000000 Fe
   0.8275290000000000    0.4762500000000000    0.5502340000000000 Fe
   0.9220730000000000    0.7724600000000000    0.4498310000000000 Fe
   0.3235540000000000    0.4751760000000000    0.5489650000000000 Fe
   0.5268290000000000    0.0747260000000000    0.8514330000000000 Fe
   0.2253120000000000    0.6760420000000000    0.1499300000000000 Fe
   0.9252180000000000    0.2752010000000000    0.9491260000000000 Fe
   0.3259800000000000    0.9760240000000000    0.0508580000000000 Fe
   0.0220630000000000    0.0743700000000000    0.3486510000000000 Fe
   0.7264520000000000    0.6764250000000001    0.6503170000000000 Fe
   0.1244950000000000    0.3753800000000000    0.2486590000000000 Fe
   0.1253350000000000    0.8741270000000000    0.7522890000000000 Fe
   0.1229550000000000    0.8740380000000000    0.2491570000000000 Fe
   0.6246470000000000    0.8731530000000000    0.7490220000000000 Fe
