Gd2 Fe12 P7
1.0
   8.9266649999999998    0.0000000000000000    0.0000000000000005
  -4.4633319978344561    7.7307189971868251    0.0000000000000005
   0.0000000000000000    0.0000000000000000    3.6414249999999999
Gd Fe P
2 12 7
direct
   0.3333333333333333    0.6666666666666666    0.0000000000000000 Gd
   0.0000000000000000    0.0000000000000000    0.5000000000000000 Gd
   0.7240790000000000    0.7587280000000000    0.0000000000000000 Fe
   0.2412720000000000    0.9653510000000000    0.0000000000000000 Fe
   0.0346490000000000    0.2759210000000000    0.0000000000000000 Fe
   0.9399120000000000    0.4875700000000000    0.0000000000000000 Fe
   0.5124300000000001    0.4523410000000000    0.0000000000000000 Fe
   0.5476590000000000    0.0600880000000000    0.0000000000000000 Fe
   0.0991540000000000    0.7179759999999999    0.5000000000000000 Fe
   0.2820240000000000    0.3811780000000000    0.5000000000000000 Fe
   0.6188220000000000    0.9008460000000000    0.5000000000000000 Fe
   0.7613110000000000    0.5437820000000000    0.5000000000000000 Fe
   0.4562180000000000    0.2175310000000000    0.5000000000000000 Fe
   0.7824690000000000    0.2386890000000000    0.5000000000000000 Fe
   0.9661650000000001    0.7453450000000000    0.0000000000000000 P
   0.2546550000000000    0.2208190000000000    0.0000000000000000 P
   0.7791810000000000    0.0338350000000000    0.0000000000000000 P
   0.0661320000000000    0.4438400000000000    0.5000000000000000 P
   0.5561600000000000    0.6222910000000000    0.5000000000000000 P
   0.3777090000000000    0.9338680000000000    0.5000000000000000 P
   0.6666666666666666    0.3333333333333333    0.0000000000000000 P
