Gd1 Y5 Fe14 B4
1.0
   5.1326261899999999    0.0000000000000000    0.0000000000000003
  -2.5680423304731455    4.4439876934548703    0.0000000000000003
   0.0000000000000000    0.0000000000000000   14.5342260000000003
Gd Y Fe B
1 5 14 4
direct
   0.3333333333333333    0.6666666666666666    0.7500000000000000 Gd
   0.6666666666666666    0.3333333333333333    0.0344290000000000 Y
   0.3333333333333333    0.6666666666666666    0.9656709999999999 Y
   0.3333333333333333    0.6666666666666666    0.5343290000000001 Y
   0.6666666666666666    0.3333333333333333    0.4655710000000000 Y
   0.6666666666666666    0.3333333333333333    0.2500000000000000 Y
   0.8344240000000001    0.6688809999999999    0.6470470000000000 Fe
   0.8344520000000000    0.1655480000000000    0.6470480000000000 Fe
   0.3311190000000000    0.1655760000000000    0.6470470000000000 Fe
   0.1656130000000000    0.3311960000000000    0.3530510000000000 Fe
   0.1655850000000000    0.8344150000000000    0.3530410000000000 Fe
   0.6688040000000000    0.8343870000000000    0.3530510000000000 Fe
   0.1656130000000000    0.3311960000000000    0.1469490000000000 Fe
   0.1655850000000000    0.8344150000000000    0.1469590000000000 Fe
   0.6688040000000000    0.8343870000000000    0.1469490000000000 Fe
   0.8344240000000001    0.6688809999999999    0.8529530000000000 Fe
   0.8344520000000000    0.1655480000000000    0.8529520000000000 Fe
   0.3311190000000000    0.1655760000000000    0.8529530000000000 Fe
   0.9999930000000000    0.0000070000000000    0.4998660000000000 Fe
   0.9999930000000000    0.0000070000000000    0.0001340000000000 Fe
   0.6665890000000000    0.3334110000000000    0.7500000000000000 B
   0.3334450000000000    0.6665550000000000    0.2500000000000000 B
   0.0000640000000000    0.9999360000000000    0.7500000000000000 B
   0.9998990000000000    0.0001010000000000    0.2500000000000000 B
