Gd2 Y2 Co6
1.0
   5.4019440100000002    0.0000000000000000    0.0000000000000003
  -2.7518755032710662    4.6484597019549980    0.0000000000000003
   0.0000000000000000    0.0000000000000000    6.9960639999999996
Gd Y Co
2 2 6
direct
   0.3366490000000000    0.6633530000000000    0.0974110000000000 Gd
   0.8366490000000000    0.1633530000000000    0.4025900000000000 Gd
   0.1633940000000000    0.8366080000000000    0.5974810000000000 Y
   0.6633940000000000    0.3366080000000000    0.9025180000000000 Y
   0.9999950000000000    0.0000050000000000    0.9999749999999999 Co
   0.3345930000000000    0.1654060000000000    0.2500000000000000 Co
   0.8345930000000000    0.6654070000000000    0.2500000000000000 Co
   0.4999960000000000    0.5000060000000000    0.5000240000000000 Co
   0.1653690000000000    0.3346300000000000    0.7500000000000000 Co
   0.6653700000000000    0.8346300000000000    0.7500000000000000 Co
