Gd1 Zr1 Nb1 Fe9
1.0
   4.7419081720294907    0.0000000000000000    1.4614756452505240
   2.1457378480312626    4.2286527083839047    1.4614756994591660
   0.0000000000000000    0.0000000000000000    8.4235460399999997
Gd Zr Nb Fe
1 1 1 9
direct
   0.0004400000000000    0.0004400000000000    0.9986810000000000 Gd
   0.8565460000000000    0.8565460000000000    0.4303620000000000 Zr
   0.1426870000000000    0.1426870000000000    0.5719379999999999 Nb
   0.0830180000000000    0.5865070000000000    0.7439670000000000 Fe
   0.5865070000000000    0.5865070000000000    0.7439670000000000 Fe
   0.5865070000000000    0.0830180000000000    0.7439670000000000 Fe
   0.9173220000000000    0.4135100000000000    0.2556600000000000 Fe
   0.4135100000000000    0.4135100000000000    0.2556600000000000 Fe
   0.4135100000000000    0.9173220000000000    0.2556600000000000 Fe
   0.3330830000000000    0.3330830000000000    0.0007500000000000 Fe
   0.6669990000000000    0.6669990000000000    0.9989990000000000 Fe
   0.4998700000000000    0.4998700000000000    0.5003910000000000 Fe
