Gd3 Fe7 Co2
1.0
   4.8703971638570387    0.0000000000000000    7.1636761907445523
   2.1931928137378973    4.3486388879704494    7.1636762477681142
   0.0000000000000000    0.0000000000000000    8.6606550799999997
Gd Fe Co
3 7 2
direct
   0.1433460000000000    0.1433460000000000    0.1414580000000000 Gd
   0.9998370000000000    0.9998370000000000    0.9998440000000000 Gd
   0.8589150000000000    0.8589150000000000    0.8589220000000000 Gd
   0.9169460000000000    0.4180100000000000    0.4188690000000000 Fe
   0.5815050000000000    0.0819420000000000    0.5814990000000000 Fe
   0.5820870000000000    0.5820870000000000    0.0814610000000000 Fe
   0.4180100000000000    0.9169460000000000    0.4188690000000000 Fe
   0.0819420000000000    0.5815050000000000    0.5814990000000000 Fe
   0.3328460000000000    0.3328460000000000    0.3319810000000000 Fe
   0.6666666666666666    0.6666666666666666    0.6680460000000000 Fe
   0.4180460000000000    0.4180460000000000    0.9185390000000000 Co
   0.4998930000000000    0.4998930000000000    0.4990120000000000 Co
