Gd3 Fe7 B2
1.0
   4.8408323583589654    0.0000000000000000    6.1016170819465625
   2.1264427412713176    4.3487820663650751    6.1016167850776526
   0.0000000000000000    0.0000000000000000    7.7886704900000003
Gd Fe B
3 7 2
direct
   0.3560680000000000    0.3560680000000000    0.3560680000000000 Gd
   0.5001570000000000    0.5001570000000000    0.5001570000000000 Gd
   0.6436690000000000    0.6436690000000000    0.6436690000000000 Gd
   0.9998770000000000    0.9998770000000000    0.9998770000000000 Fe
   0.5735930000000000    0.0662470000000000    0.0662490000000000 Fe
   0.0662470000000000    0.5735930000000000    0.0662490000000000 Fe
   0.9336030000000000    0.9336030000000000    0.4268440000000000 Fe
   0.0662480000000000    0.0662480000000000    0.5735940000000000 Fe
   0.9336030000000000    0.4268450000000000    0.9336020000000000 Fe
   0.4268450000000000    0.9336030000000000    0.9336020000000000 Fe
   0.1680530000000000    0.1680530000000000    0.1680530000000000 B
   0.8320350000000000    0.8320350000000000    0.8320350000000000 B
