Gd1 Lu1 Hf4 Fe18
1.0
   4.9756520000000002    0.0000000000000000    0.0000000000000003
  -2.4878279989161181    4.3090409983752584    0.0000000000000003
   0.0000000000000000    0.0000000000000000   15.8541100000000004
Gd Lu Hf Fe
1 1 4 18
direct
   0.3333333333333333    0.6666666666666666    0.7500000000000000 Gd
   0.6666666666666666    0.3333333333333333    0.2500000000000000 Lu
   0.3333333333333333    0.6666666666666666    0.9632690000000000 Hf
   0.6666666666666666    0.3333333333333333    0.0365500000000000 Hf
   0.6666666666666666    0.3333333333333333    0.4634500000000000 Hf
   0.3333333333333333    0.6666666666666666    0.5367310000000000 Hf
   0.1679880000000000    0.8320120000000000    0.3771880000000000 Fe
   0.1679880000000000    0.3359760000000000    0.3771880000000000 Fe
   0.6640239999999999    0.8320120000000000    0.3771880000000000 Fe
   0.8321910000000000    0.1678090000000000    0.6230710000000000 Fe
   0.8321910000000000    0.6643820000000000    0.6230710000000000 Fe
   0.3356180000000000    0.1678090000000000    0.6230710000000000 Fe
   0.8321910000000000    0.1678090000000000    0.8769290000000000 Fe
   0.8321910000000000    0.6643820000000000    0.8769290000000000 Fe
   0.3356180000000000    0.1678090000000000    0.8769290000000000 Fe
   0.1679880000000000    0.8320120000000000    0.1228120000000000 Fe
   0.1679880000000000    0.3359760000000000    0.1228120000000000 Fe
   0.6640239999999999    0.8320120000000000    0.1228120000000000 Fe
   0.3333333333333333    0.6666666666666666    0.2500000000000000 Fe
   0.6666666666666666    0.3333333333333333    0.7500000000000000 Fe
   0.0000000000000000    0.0000000000000000    0.2500000000000000 Fe
   0.0000000000000000    0.0000000000000000    0.7500000000000000 Fe
   0.0000000000000000    0.0000000000000000    0.5001960000000000 Fe
   0.0000000000000000    0.0000000000000000    0.9998040000000000 Fe
