Gd1 Ta1 Nb1 Fe9
1.0
   4.6919498582046986    0.0000000000000000    6.8886980513432983
   2.1231292206480372    4.1841023427436816    6.8886967230340135
   0.0000000000000000    0.0000000000000000    8.3347810100000004
Gd Ta Nb Fe
1 1 1 9
direct
   0.0002560000000000    0.0002560000000000    0.0002560000000000 Gd
   0.1438630000000000    0.1438630000000000    0.1438630000000000 Ta
   0.8565120000000001    0.8565120000000001    0.8565120000000001 Nb
   0.4999270000000000    0.4999270000000000    0.4999270000000000 Fe
   0.3331840000000000    0.3331840000000000    0.3331840000000000 Fe
   0.6666666666666666    0.6666666666666666    0.6666666666666666 Fe
   0.0831820000000000    0.5876140000000000    0.5876140000000000 Fe
   0.5876140000000000    0.5876140000000000    0.0831820000000000 Fe
   0.5876140000000000    0.0831820000000000    0.5876140000000000 Fe
   0.4119790000000000    0.9172670000000001    0.4119790000000000 Fe
   0.9172670000000001    0.4119790000000000    0.4119790000000000 Fe
   0.4119790000000000    0.4119790000000000    0.9172670000000001 Fe
