Gd2 Y1 Fe9
1.0
   4.8578983030878140    0.0000000000000000    7.0950283007692079
   2.1962156735067211    4.3331082205523153    7.0950282323870599
   0.0000000000000000    0.0000000000000000    8.5987569100000005
Gd Y Fe
2 1 9
direct
   0.8578950000000000    0.8578950000000000    0.8578950000000000 Gd
   0.1420020000000000    0.1420020000000000    0.1420020000000000 Gd
   0.0000640000000000    0.0000640000000000    0.0000640000000000 Y
   0.4999640000000000    0.4999640000000000    0.4999640000000000 Fe
   0.3325760000000000    0.3325760000000000    0.3325760000000000 Fe
   0.6674560000000000    0.6674560000000000    0.6674560000000000 Fe
   0.0825900000000000    0.5815810000000000    0.5815810000000000 Fe
   0.5815810000000000    0.5815810000000000    0.0825900000000000 Fe
   0.5815810000000000    0.0825900000000000    0.5815810000000000 Fe
   0.4183980000000000    0.9174930000000000    0.4183980000000000 Fe
   0.9174930000000000    0.4183980000000000    0.4183980000000000 Fe
   0.4183980000000000    0.4183980000000000    0.9174930000000000 Fe
