Gd3 Sc1 Cr1 Fe19 P12
1.0
   3.6346759999999998    0.0000000000000000    0.0000000000000002
  -0.0000000000000006   10.2438144219758360    0.0370103614452493
   0.0000000000000000    0.0000000000000000   11.7849927399999999
Gd Sc Cr Fe P
3 1 1 19 12
direct
   0.2500000000000000    0.5794970000000000    0.7048790000000000 Gd
   0.2500000000000000    0.9192890000000000    0.2044940000000000 Gd
   0.7500000000000000    0.0814190000000000    0.7940260000000000 Gd
   0.7500000000000000    0.4208650000000000    0.2973750000000000 Sc
   0.2500000000000000    0.7030670000000000    0.9901130000000000 Cr
   0.2500000000000000    0.7910770000000000    0.4878940000000000 Fe
   0.7500000000000000    0.2923750000000000    0.0112120000000000 Fe
   0.7500000000000000    0.2085690000000000    0.5108330000000000 Fe
   0.2500000000000000    0.4054270000000000    0.4878520000000000 Fe
   0.2500000000000000    0.0954070000000000    0.9892609999999999 Fe
   0.7500000000000000    0.5925910000000000    0.5096640000000000 Fe
   0.7500000000000000    0.9057400000000000    0.0097920000000000 Fe
   0.2500000000000000    0.2208710000000000    0.1765540000000000 Fe
   0.2500000000000000    0.2802020000000000    0.6753800000000000 Fe
   0.7500000000000000    0.7816740000000000    0.8225800000000000 Fe
   0.7500000000000000    0.7187060000000000    0.3250780000000000 Fe
   0.2500000000000000    0.8758970000000000    0.7001750000000000 Fe
   0.2500000000000000    0.6228170000000000    0.2038800000000000 Fe
   0.7500000000000000    0.1268610000000000    0.2984300000000000 Fe
   0.7500000000000000    0.3768940000000000    0.7999910000000000 Fe
   0.2500000000000000    0.4616640000000000    0.9350270000000001 Fe
   0.2500000000000000    0.0390970000000000    0.4307260000000000 Fe
   0.7500000000000000    0.5329750000000000    0.0696770000000000 Fe
   0.7500000000000000    0.9632849999999999    0.5663440000000000 Fe
   0.2500000000000000    0.4227330000000000    0.1181340000000000 P
   0.2500000000000000    0.0782400000000000    0.6119160000000000 P
   0.7500000000000000    0.5773610000000000    0.8873460000000000 P
   0.7500000000000000    0.9223960000000000    0.3859590000000000 P
   0.2500000000000000    0.2650920000000000    0.8697720000000000 P
   0.2500000000000000    0.2390030000000000    0.3696080000000000 P
   0.7500000000000000    0.7337760000000000    0.1318330000000000 P
   0.7500000000000000    0.7640520000000000    0.6271430000000000 P
   0.2500000000000000    0.5982430000000000    0.3945160000000000 P
   0.2500000000000000    0.9034050000000000    0.8936830000000000 P
   0.7500000000000000    0.3984840000000000    0.6050510000000000 P
   0.7500000000000000    0.1009500000000000    0.1038040000000000 P
