Gd3 Fe9
1.0
   4.8557666085755580    0.0000000000000000    7.0782507191573956
   2.1945105243752017    4.3315813229988143    7.0782506417653490
   0.0000000000000000    0.0000000000000000    8.5837101699999998
Gd Fe
3 9
direct
   0.0000000000000000    0.0000000000000000    0.0000000000000000 Gd
   0.1419550000000000    0.1419550000000000    0.1419550000000000 Gd
   0.8580449999999999    0.8580449999999999    0.8580449999999999 Gd
   0.4180780000000000    0.4180780000000000    0.9179890000000001 Fe
   0.9179890000000001    0.4180780000000000    0.4180780000000000 Fe
   0.5819220000000001    0.0820110000000000    0.5819220000000001 Fe
   0.5819220000000001    0.5819220000000001    0.0820110000000000 Fe
   0.4180780000000000    0.9179890000000001    0.4180780000000000 Fe
   0.0820110000000000    0.5819220000000001    0.5819220000000001 Fe
   0.3327640000000000    0.3327640000000000    0.3327640000000000 Fe
   0.6672360000000001    0.6672360000000001    0.6672360000000001 Fe
   0.5000000000000000    0.5000000000000000    0.5000000000000000 Fe
