Gd2 Al1 Fe16 C3
1.0
   6.4398484941079852    0.0000000000000000    0.7744315678920818
   0.6590316185470090    6.4060383054491581    0.7744321285368770
   0.0000000000000000    0.0000000000000000    6.4942312800000002
Gd Al Fe C
2 1 16 3
direct
   0.6569070000000000    0.6569070000000000    0.6580430000000000 Gd
   0.3430930000000000    0.3430930000000000    0.3419570000000000 Gd
   0.0000000000000000    0.0000000000000000    0.5000000000000000 Al
   0.5000000000000000    0.0000000000000000    0.0000000000000000 Fe
   0.0000000000000000    0.5000000000000000    0.0000000000000000 Fe
   0.7156550000000000    0.2843450000000000    0.0000000000000000 Fe
   0.0007550000000000    0.7135480000000000    0.2822440000000000 Fe
   0.2864520000000000    0.9992450000000000    0.7177559999999999 Fe
   0.9992450000000000    0.2864520000000000    0.7177559999999999 Fe
   0.7135480000000000    0.0007550000000000    0.2822440000000000 Fe
   0.2843450000000000    0.7156550000000000    0.0000000000000000 Fe
   0.3463910000000000    0.8538960000000000    0.3422080000000000 Fe
   0.3432710000000000    0.3432710000000000    0.8543190000000001 Fe
   0.8538960000000000    0.3463910000000000    0.3422080000000000 Fe
   0.6536090000000000    0.1461040000000000    0.6577920000000000 Fe
   0.6567290000000000    0.6567290000000000    0.1456810000000000 Fe
   0.1461040000000000    0.6536090000000000    0.6577920000000000 Fe
   0.9042220000000000    0.9042220000000000    0.9057440000000000 Fe
   0.0957780000000000    0.0957780000000000    0.0942560000000000 Fe
   0.5000000000000000    0.5000000000000000    0.0000000000000000 C
   0.0000000000000000    0.5000000000000000    0.5000000000000000 C
   0.5000000000000000    0.0000000000000000    0.5000000000000000 C
