Gd2 Mn1 Co16
1.0
   6.2201651915677134    0.0000000000000000    0.7595640792765278
   0.6724529137932185    6.1837085064314126    0.7595641897339814
   0.0000000000000000    0.0000000000000000    6.2663699299999998
Gd Mn Co
2 1 16
direct
   0.6560360000000000    0.6560360000000000    0.6560360000000000 Gd
   0.3464810000000000    0.3464810000000000    0.3464810000000000 Gd
   0.0974680000000000    0.0974680000000000    0.0974680000000000 Mn
   0.7097400000000000    0.2900720000000000    0.9987140000000000 Co
   0.9987140000000000    0.7097400000000000    0.2900720000000000 Co
   0.2900720000000000    0.9987140000000000    0.7097400000000000 Co
   0.9987140000000000    0.2900720000000000    0.7097400000000000 Co
   0.7097400000000000    0.9987140000000000    0.2900720000000000 Co
   0.2900720000000000    0.7097400000000000    0.9987140000000000 Co
   0.3494230000000000    0.3494230000000000    0.8480529999999999 Co
   0.8480529999999999    0.3494230000000000    0.3494230000000000 Co
   0.3494230000000000    0.8480529999999999    0.3494230000000000 Co
   0.6528610000000000    0.6528610000000000    0.1521800000000000 Co
   0.1521800000000000    0.6528610000000000    0.6528610000000000 Co
   0.6528610000000000    0.1521800000000000    0.6528610000000000 Co
   0.9975300000000000    0.9975300000000000    0.5045870000000000 Co
   0.5045870000000000    0.9975300000000000    0.9975300000000000 Co
   0.9975300000000000    0.5045870000000000    0.9975300000000000 Co
   0.8985190000000000    0.8985190000000000    0.8985190000000000 Co
