Gd3 Y1 Fe8
1.0
   4.9106118252070878    0.0000000000000000    7.4081478477912643
   2.2323530044013102    4.3738667524653252    7.4081478698196133
   0.0000000000000000    0.0000000000000000    8.8879011299999995
Gd Y Fe
3 1 8
direct
   0.3125710000000000    0.3125710000000000    0.3125710000000000 Gd
   0.6873720000000000    0.6873720000000000    0.6873720000000000 Gd
   0.1875230000000000    0.1875230000000000    0.1875230000000000 Gd
   0.8125329999999999    0.8125329999999999    0.8125329999999999 Y
   0.5000220000000000    0.5000220000000000    0.5000220000000000 Fe
   0.0000810000000000    0.0000810000000000    0.0000810000000000 Fe
   0.2499220000000000    0.2499220000000000    0.7498970000000000 Fe
   0.7497980000000000    0.7497980000000000    0.2505580000000000 Fe
   0.2499220000000000    0.7498970000000000    0.2499220000000000 Fe
   0.7497980000000000    0.2505580000000000    0.7497980000000000 Fe
   0.7498970000000000    0.2499220000000000    0.2499220000000000 Fe
   0.2505580000000000    0.7497980000000000    0.7497980000000000 Fe
