Gd2 Y2 Cr1 Fe19 P12
1.0
   3.6578330000000001    0.0000000000000000    0.0000000000000002
  -0.0000000000000006   10.3152829092419243    0.0098791820615982
   0.0000000000000000    0.0000000000000000   11.8447533499999995
Gd Y Cr Fe P
2 2 1 19 12
direct
   0.7500000000000000    0.4198370000000000    0.2961760000000000 Gd
   0.7500000000000000    0.0808870000000000    0.7948940000000000 Gd
   0.2500000000000000    0.5811840000000000    0.7043100000000000 Y
   0.2500000000000000    0.9189250000000000    0.2045940000000000 Y
   0.2500000000000000    0.7031269999999999    0.9895210000000000 Cr
   0.2500000000000000    0.7919870000000000    0.4888030000000000 Fe
   0.7500000000000000    0.2927820000000000    0.0115810000000000 Fe
   0.7500000000000000    0.2080590000000000    0.5111510000000000 Fe
   0.2500000000000000    0.4050070000000000    0.4902500000000000 Fe
   0.2500000000000000    0.0954130000000000    0.9901160000000000 Fe
   0.7500000000000000    0.5946240000000000    0.5098490000000000 Fe
   0.7500000000000000    0.9052170000000000    0.0091470000000000 Fe
   0.2500000000000000    0.2198080000000000    0.1763210000000000 Fe
   0.2500000000000000    0.2807990000000000    0.6764380000000000 Fe
   0.7500000000000000    0.7821750000000000    0.8231800000000000 Fe
   0.7500000000000000    0.7192560000000000    0.3250980000000000 Fe
   0.2500000000000000    0.8763220000000000    0.7006490000000000 Fe
   0.2500000000000000    0.6245840000000000    0.2020990000000000 Fe
   0.7500000000000000    0.1248680000000000    0.2988990000000000 Fe
   0.7500000000000000    0.3752960000000000    0.7991480000000000 Fe
   0.2500000000000000    0.4620050000000000    0.9326780000000000 Fe
   0.2500000000000000    0.0370280000000000    0.4322700000000000 Fe
   0.7500000000000000    0.5342040000000000    0.0665150000000000 Fe
   0.7500000000000000    0.9635350000000000    0.5671950000000000 Fe
   0.2500000000000000    0.4229730000000000    0.1134400000000000 P
   0.2500000000000000    0.0776470000000000    0.6120150000000000 P
   0.7500000000000000    0.5781040000000000    0.8869080000000000 P
   0.7500000000000000    0.9221549999999999    0.3877600000000000 P
   0.2500000000000000    0.2650980000000000    0.8714060000000000 P
   0.2500000000000000    0.2338230000000000    0.3716650000000000 P
   0.7500000000000000    0.7323440000000000    0.1311910000000000 P
   0.7500000000000000    0.7665430000000000    0.6277090000000000 P
   0.2500000000000000    0.6015430000000000    0.3960090000000000 P
   0.2500000000000000    0.9024580000000000    0.8945210000000000 P
   0.7500000000000000    0.3988620000000000    0.6030260000000000 P
   0.7500000000000000    0.1015190000000000    0.1034640000000000 P
