Gd1 Sc2 Fe6 Si3
1.0
   4.8081328107765895    0.0000000000000000    6.6689312655100297
   2.1534056103653447    4.2989511834482101    6.6689302680562408
   0.0000000000000000    0.0000000000000000    8.2214825099999995
Gd Sc Fe Si
1 2 6 3
direct
   0.0000000000000000    0.0000000000000000    0.0000000000000000 Gd
   0.1427170000000000    0.1427170000000000    0.1427170000000000 Sc
   0.8572830000000000    0.8572830000000000    0.8572830000000000 Sc
   0.0772350000000000    0.5849380000000000    0.5849380000000000 Fe
   0.5849380000000000    0.5849380000000000    0.0772350000000000 Fe
   0.5849380000000000    0.0772350000000000    0.5849380000000000 Fe
   0.4150620000000000    0.9227649999999999    0.4150620000000000 Fe
   0.9227649999999999    0.4150620000000000    0.4150620000000000 Fe
   0.4150620000000000    0.4150620000000000    0.9227649999999999 Fe
   0.5000000000000000    0.5000000000000000    0.5000000000000000 Si
   0.3337830000000000    0.3337830000000000    0.3337830000000000 Si
   0.6662169999999999    0.6662169999999999    0.6662169999999999 Si
