Gd3 Sc1 Fe20 P12
1.0
   3.6393730000000000    0.0000000000000000    0.0000000000000002
  -0.0000000000000006   10.2599970010516053    0.0256605934901109
   0.0000000000000000    0.0000000000000000   11.8058571499999996
Gd Sc Fe P
3 1 20 12
direct
   0.2500000000000000    0.9191310000000000    0.2049400000000000 Gd
   0.7500000000000000    0.4202380000000000    0.2949810000000000 Gd
   0.7500000000000000    0.0811220000000000    0.7954420000000000 Gd
   0.2500000000000000    0.5794980000000000    0.7034830000000000 Sc
   0.2500000000000000    0.7084060000000000    0.9890390000000000 Fe
   0.2500000000000000    0.7909230000000000    0.4894910000000000 Fe
   0.7500000000000000    0.2929450000000000    0.0099130000000000 Fe
   0.7500000000000000    0.2087960000000000    0.5125880000000000 Fe
   0.2500000000000000    0.4065690000000000    0.4919550000000000 Fe
   0.2500000000000000    0.0955190000000000    0.9901970000000000 Fe
   0.7500000000000000    0.5943020000000000    0.5126630000000000 Fe
   0.7500000000000000    0.9053030000000000    0.0096600000000000 Fe
   0.2500000000000000    0.2198230000000000    0.1766060000000000 Fe
   0.2500000000000000    0.2819800000000000    0.6764960000000000 Fe
   0.7500000000000000    0.7790750000000000    0.8230680000000000 Fe
   0.7500000000000000    0.7187710000000000    0.3241910000000000 Fe
   0.2500000000000000    0.8721020000000000    0.7018100000000000 Fe
   0.2500000000000000    0.6233980000000000    0.2003340000000000 Fe
   0.7500000000000000    0.1246900000000000    0.2993300000000000 Fe
   0.7500000000000000    0.3785080000000000    0.7967450000000000 Fe
   0.2500000000000000    0.4656110000000000    0.9292520000000000 Fe
   0.2500000000000000    0.0362720000000000    0.4336690000000000 Fe
   0.7500000000000000    0.5372960000000000    0.0644020000000000 Fe
   0.7500000000000000    0.9603860000000000    0.5693940000000000 Fe
   0.2500000000000000    0.4225840000000000    0.1103660000000000 P
   0.2500000000000000    0.0779080000000000    0.6129420000000000 P
   0.7500000000000000    0.5778000000000000    0.8826240000000000 P
   0.7500000000000000    0.9212650000000000    0.3887820000000000 P
   0.2500000000000000    0.2672290000000000    0.8714300000000000 P
   0.2500000000000000    0.2345120000000000    0.3730460000000000 P
   0.7500000000000000    0.7330590000000000    0.1284900000000000 P
   0.7500000000000000    0.7606550000000000    0.6302290000000000 P
   0.2500000000000000    0.6014500000000000    0.3964220000000000 P
   0.2500000000000000    0.8990760000000000    0.8971320000000000 P
   0.7500000000000000    0.4022420000000000    0.6055360000000000 P
   0.7500000000000000    0.1015580000000000    0.1033540000000000 P
