Gd2 Mn3 Fe11 Si3 C3
1.0
   6.3850779818941463    0.0000000000000000    0.7358544189266208
   0.6559210017151812    6.3512974366961386    0.7358530823005589
   0.0000000000000000    0.0000000000000000    6.4273394399999999
Gd Mn Fe Si C
2 3 11 3 3
direct
   0.6530710000000000    0.6530710000000000    0.6530710000000000 Gd
   0.3469290000000000    0.3469290000000000    0.3469290000000000 Gd
   0.7179219999999999    0.2820780000000000    0.0000000000000000 Mn
   0.0000000000000000    0.7179219999999999    0.2820780000000000 Mn
   0.2820780000000000    0.0000000000000000    0.7179219999999999 Mn
   0.0000000000000000    0.2841090000000000    0.7158910000000001 Fe
   0.7158910000000001    0.0000000000000000    0.2841090000000000 Fe
   0.2841090000000000    0.7158910000000001    0.0000000000000000 Fe
   0.3419660000000000    0.3383890000000000    0.8616060000000000 Fe
   0.8616060000000000    0.3419660000000000    0.3383890000000000 Fe
   0.3383890000000000    0.8616060000000000    0.3419660000000000 Fe
   0.6616109999999999    0.6580340000000000    0.1383940000000000 Fe
   0.1383940000000000    0.6616109999999999    0.6580340000000000 Fe
   0.6580340000000000    0.1383940000000000    0.6616109999999999 Fe
   0.9035970000000000    0.9035970000000000    0.9035970000000000 Fe
   0.0964030000000000    0.0964030000000000    0.0964030000000000 Fe
   0.9977140000000000    0.0022860000000000    0.5000000000000000 Si
   0.5000000000000000    0.9977140000000000    0.0022860000000000 Si
   0.0022860000000000    0.5000000000000000    0.9977140000000000 Si
   0.5000450000000000    0.4999550000000000    0.0000000000000000 C
   0.0000000000000000    0.5000450000000000    0.4999550000000000 C
   0.4999550000000000    0.0000000000000000    0.5000450000000000 C
