Gd1 Y1 Fe3 Os1
1.0
   4.4890381135781796    0.0000000000000000    2.5724386051358299
   1.5074528780135898    4.2283621119524133    2.5724395624915211
   0.0000000000000000    0.0000000000000000    5.2030214299999997
Gd Y Fe Os
1 1 3 1
direct
   0.2503820000000000    0.2503820000000000    0.2488530000000000 Gd
   0.9997010000000000    0.9997010000000000    0.0008980000000000 Y
   0.6248910000000000    0.1252760000000000    0.6249400000000001 Fe
   0.1252760000000000    0.6248910000000000    0.6249400000000001 Fe
   0.6248910000000000    0.6248910000000000    0.6249400000000001 Fe
   0.6248570000000000    0.6248570000000000    0.1254270000000000 Os
