Gd1 Y5 Fe14 B4
1.0
   5.1315122199203715    0.0000000000000000   -0.0000285872257854
  -2.5666029499583138    4.4435307959056658    0.0000284627343517
   0.0000000000000000    0.0000000000000000   14.5510933700000002
Gd Y Fe B
1 5 14 4
direct
   0.6666666666666666    0.3333333333333333    0.0341160000000000 Gd
   0.3334220000000000    0.6665780000000000    0.9659720000000001 Y
   0.3333750000000000    0.6666666666666666    0.5344600000000000 Y
   0.6666666666666666    0.3333333333333333    0.4655510000000000 Y
   0.6665140000000001    0.3334860000000000    0.2494750000000000 Y
   0.3334840000000000    0.6665160000000000    0.7502700000000000 Y
   0.8346920000000000    0.6691080000000000    0.6467530000000000 Fe
   0.8347059999999999    0.1652940000000000    0.6467180000000000 Fe
   0.3308920000000000    0.1653080000000000    0.6467530000000000 Fe
   0.1653930000000000    0.3310540000000000    0.3532660000000000 Fe
   0.1653350000000000    0.8346650000000000    0.3532230000000000 Fe
   0.6689460000000000    0.8346070000000000    0.3532660000000000 Fe
   0.1653870000000000    0.3310920000000000    0.1460490000000000 Fe
   0.1653410000000000    0.8346590000000000    0.1460620000000000 Fe
   0.6689079999999999    0.8346130000000000    0.1460490000000000 Fe
   0.8344460000000000    0.6685040000000000    0.8539130000000000 Fe
   0.8344710000000000    0.1655290000000000    0.8539000000000000 Fe
   0.3314960000000000    0.1655540000000000    0.8539130000000000 Fe
   0.9999670000000001    0.0000330000000000    0.5000190000000000 Fe
   0.9999590000000000    0.0000410000000000    0.0002750000000000 Fe
   0.6668550000000000    0.3331450000000000    0.7501780000000000 B
   0.3332990000000000    0.6666666666666666    0.2496800000000000 B
   0.0000760000000000    0.9999240000000000    0.7504729999999999 B
   0.9997160000000000    0.0002840000000000    0.2496640000000000 B
