Gd1 Hf2 Fe6 Si3
1.0
   4.7800920895465770    0.0000000000000000    6.6652159375349465
   2.1429792451484722    4.2728116611779372    6.6652157426897993
   0.0000000000000000    0.0000000000000000    8.2020970099999992
Gd Hf Fe Si
1 2 6 3
direct
   0.0000000000000000    0.0000000000000000    0.0000000000000000 Gd
   0.1417360000000000    0.1417360000000000    0.1417360000000000 Hf
   0.8582640000000000    0.8582640000000000    0.8582640000000000 Hf
   0.0777430000000000    0.5858250000000000    0.5858250000000000 Fe
   0.5858250000000000    0.5858250000000000    0.0777430000000000 Fe
   0.5858250000000000    0.0777430000000000    0.5858250000000000 Fe
   0.4141750000000000    0.9222570000000000    0.4141750000000000 Fe
   0.9222570000000000    0.4141750000000000    0.4141750000000000 Fe
   0.4141750000000000    0.4141750000000000    0.9222570000000000 Fe
   0.5000000000000000    0.5000000000000000    0.5000000000000000 Si
   0.3338440000000000    0.3338440000000000    0.3338440000000000 Si
   0.6661560000000000    0.6661560000000000    0.6661560000000000 Si
