Gd6 Hf1 Co22
1.0
   7.2620320042745137    0.0000000000000000    4.1927360024052964
   2.4206779999870203    6.8467079996853260    4.1927360003787610
   0.0000000000000000    0.0000000000000000    8.3854710000000008
Gd Hf Co
6 1 22
direct
   0.7875550000000000    0.2124450000000000    0.7875550000000000 Gd
   0.2124450000000000    0.2124450000000000    0.7875550000000000 Gd
   0.7875550000000000    0.7875550000000000    0.2124450000000000 Gd
   0.7875550000000000    0.2124450000000000    0.2124450000000000 Gd
   0.2124450000000000    0.7875550000000000    0.7875550000000000 Gd
   0.2124450000000000    0.7875550000000000    0.2124450000000000 Gd
   0.5000000000000000    0.5000000000000000    0.5000000000000000 Hf
   0.8232300000000000    0.8232300000000000    0.8232300000000000 Co
   0.4696890000000000    0.1767700000000000    0.1767700000000000 Co
   0.1767700000000000    0.1767700000000000    0.4696890000000000 Co
   0.1767700000000000    0.4696890000000000    0.1767700000000000 Co
   0.8232300000000000    0.8232300000000000    0.5303110000000000 Co
   0.8232300000000000    0.5303110000000000    0.8232300000000000 Co
   0.0000000000000000    0.5000000000000000    0.0000000000000000 Co
   0.5000000000000000    0.0000000000000000    0.0000000000000000 Co
   0.0000000000000000    0.5000000000000000    0.5000000000000000 Co
   0.5000000000000000    0.0000000000000000    0.5000000000000000 Co
   0.0000000000000000    0.0000000000000000    0.5000000000000000 Co
   0.5000000000000000    0.5000000000000000    0.0000000000000000 Co
   0.3725800000000000    0.3725800000000000    0.3725800000000000 Co
   0.1177420000000000    0.6274200000000000    0.6274189999999999 Co
   0.6274189999999999    0.1177420000000000    0.6274189999999999 Co
   0.6274200000000000    0.6274200000000000    0.1177420000000000 Co
   0.3725810000000000    0.8822580000000000    0.3725800000000000 Co
   0.3725810000000000    0.3725800000000000    0.8822570000000000 Co
   0.8822570000000000    0.3725810000000000    0.3725800000000000 Co
   0.6274200000000000    0.6274200000000000    0.6274189999999999 Co
   0.1767700000000000    0.1767700000000000    0.1767700000000000 Co
   0.5303110000000000    0.8232300000000000    0.8232300000000000 Co
