Gd4 Cr2 Fe18 P12
1.0
   3.6574380000000000    0.0000000000000000    0.0000000000000002
  -0.0000000000000006   10.3053981648718747    0.0047941297345754
   0.0000000000000000    0.0000000000000000   11.8482033199999996
Gd Cr Fe P
4 2 18 12
direct
   0.2500000000000000    0.5809820000000000    0.7043400000000000 Gd
   0.2500000000000000    0.9188600000000000    0.2045090000000000 Gd
   0.7500000000000000    0.0810260000000000    0.7953510000000000 Gd
   0.7500000000000000    0.4192900000000000    0.2954890000000000 Gd
   0.2500000000000000    0.7029800000000000    0.9896870000000000 Cr
   0.2500000000000000    0.7966839999999999    0.4893510000000000 Cr
   0.7500000000000000    0.2930060000000000    0.0118190000000000 Fe
   0.7500000000000000    0.2071370000000000    0.5117670000000000 Fe
   0.2500000000000000    0.4041850000000000    0.4893370000000000 Fe
   0.2500000000000000    0.0958760000000000    0.9903690000000001 Fe
   0.7500000000000000    0.5942620000000000    0.5090840000000000 Fe
   0.7500000000000000    0.9053310000000000    0.0094280000000000 Fe
   0.2500000000000000    0.2202370000000000    0.1764020000000000 Fe
   0.2500000000000000    0.2805610000000000    0.6760389999999999 Fe
   0.7500000000000000    0.7818780000000000    0.8242940000000000 Fe
   0.7500000000000000    0.7175510000000000    0.3242790000000000 Fe
   0.2500000000000000    0.8756170000000000    0.7012429999999999 Fe
   0.2500000000000000    0.6235680000000000    0.2017650000000000 Fe
   0.7500000000000000    0.1251650000000000    0.2995890000000000 Fe
   0.7500000000000000    0.3756730000000000    0.7996580000000000 Fe
   0.2500000000000000    0.4621190000000000    0.9331520000000000 Fe
   0.2500000000000000    0.0383900000000000    0.4324480000000000 Fe
   0.7500000000000000    0.5337860000000000    0.0667900000000000 Fe
   0.7500000000000000    0.9658540000000000    0.5660760000000000 Fe
   0.2500000000000000    0.4227410000000000    0.1140160000000000 P
   0.2500000000000000    0.0773100000000000    0.6129180000000000 P
   0.7500000000000000    0.5777600000000001    0.8868520000000000 P
   0.7500000000000000    0.9221020000000000    0.3865720000000000 P
   0.2500000000000000    0.2655560000000000    0.8709970000000000 P
   0.2500000000000000    0.2357230000000000    0.3704640000000000 P
   0.7500000000000000    0.7326190000000000    0.1305870000000000 P
   0.7500000000000000    0.7671940000000000    0.6304280000000000 P
   0.2500000000000000    0.5964180000000000    0.3933170000000000 P
   0.2500000000000000    0.9025590000000000    0.8937810000000000 P
   0.7500000000000000    0.3980910000000000    0.6038650000000000 P
   0.7500000000000000    0.1019090000000000    0.1039340000000000 P
