Gd1 Zr2 Fe6 Si3
1.0
   4.7985593290942123    0.0000000000000000    6.7067601939354331
   2.1522073965142328    4.2888423950650667    6.7067603362649377
   0.0000000000000000    0.0000000000000000    8.2466257600000006
Gd Zr Fe Si
1 2 6 3
direct
   0.0000000000000000    0.0000000000000000    0.0000000000000000 Gd
   0.1413370000000000    0.1413370000000000    0.1413370000000000 Zr
   0.8586630000000000    0.8586630000000000    0.8586630000000000 Zr
   0.0779260000000000    0.5846670000000000    0.5846670000000000 Fe
   0.5846670000000000    0.5846670000000000    0.0779260000000000 Fe
   0.5846670000000000    0.0779260000000000    0.5846670000000000 Fe
   0.4153330000000000    0.9220739999999999    0.4153330000000000 Fe
   0.9220739999999999    0.4153330000000000    0.4153330000000000 Fe
   0.4153330000000000    0.4153330000000000    0.9220739999999999 Fe
   0.5000000000000000    0.5000000000000000    0.5000000000000000 Si
   0.3337100000000000    0.3337100000000000    0.3337100000000000 Si
   0.6662900000000000    0.6662900000000000    0.6662900000000000 Si
