Gd1 Lu1 Ti1 Fe9
1.0
   4.7548114768456884    0.0000000000000000    1.4658872450001497
   2.1514425644102717    4.2402265914838493    1.4658872966966918
   0.0000000000000000    0.0000000000000000    8.4443882299999995
Gd Lu Ti Fe
1 1 1 9
direct
   0.0015250000000000    0.0015250000000000    0.9954240000000000 Gd
   0.8563800000000000    0.8563800000000000    0.4308580000000000 Lu
   0.1424450000000000    0.1424450000000000    0.5726650000000000 Ti
   0.0832840000000000    0.5850870000000000    0.7465420000000000 Fe
   0.5850870000000000    0.5850870000000000    0.7465420000000000 Fe
   0.5850870000000000    0.0832840000000000    0.7465420000000000 Fe
   0.9176370000000000    0.4143280000000000    0.2537060000000000 Fe
   0.4143280000000000    0.4143280000000000    0.2537060000000000 Fe
   0.4143280000000000    0.9176370000000000    0.2537060000000000 Fe
   0.3328520000000000    0.3328520000000000    0.0014450000000000 Fe
   0.6672800000000000    0.6672800000000000    0.9981570000000000 Fe
   0.4997640000000000    0.4997640000000000    0.5007090000000000 Fe
