Gd5 Lu1 Fe14 B4
1.0
   5.0933360059257620    0.0000000000000000    0.0002037226679442
  -2.5462837287756543    4.4111809832444244   -0.0002036382440226
   0.0000000000000000    0.0000000000000000   14.4200540000000004
Gd Lu Fe B
5 1 14 4
direct
   0.3333333333333333    0.6666666666666666    0.5347240000000000 Gd
   0.6666666666666666    0.3333333333333333    0.0347050000000000 Gd
   0.6666666666666666    0.3333333333333333    0.4652050000000000 Gd
   0.3333333333333333    0.6666666666666666    0.7500840000000000 Gd
   0.6666666666666666    0.3333333333333333    0.2499900000000000 Gd
   0.3333333333333333    0.6666666666666666    0.9652550000000000 Lu
   0.0000030000000000    0.9999970000000000    0.9999670000000001 Fe
   0.9999760000000000    0.0000240000000000    0.4999620000000000 Fe
   0.1663970000000000    0.3327960000000000    0.1453700000000000 Fe
   0.8336980000000001    0.6673880000000000    0.6454630000000000 Fe
   0.6672040000000000    0.8336030000000000    0.1453700000000000 Fe
   0.1664050000000000    0.8335950000000000    0.1453700000000000 Fe
   0.8336960000000000    0.1663040000000000    0.6454569999999999 Fe
   0.3326120000000000    0.1663020000000000    0.6454630000000000 Fe
   0.8336700000000000    0.6673400000000000    0.8546510000000000 Fe
   0.8336630000000000    0.1663370000000000    0.8546500000000000 Fe
   0.3326600000000000    0.1663300000000000    0.8546510000000000 Fe
   0.6673700000000000    0.8336840000000000    0.3545290000000000 Fe
   0.1663090000000000    0.8336910000000000    0.3545240000000000 Fe
   0.1663160000000000    0.3326300000000000    0.3545290000000000 Fe
   0.3333333333333333    0.6666666666666666    0.2500110000000000 B
   0.6666666666666666    0.3333333333333333    0.7500450000000000 B
   0.0000000000000000    0.0000000000000000    0.2499810000000000 B
   0.9999749999999999    0.0000250000000000    0.7500460000000000 B
