Gd1 Lu2 Fe9
1.0
   4.8371478656105316    0.0000000000000000    7.0442974240044922
   2.1857242109829422    4.3151600950950542    7.0442973953033405
   0.0000000000000000    0.0000000000000000    8.5451821700000004
Gd Lu Fe
1 2 9
direct
   0.0000000000000000    0.0000000000000000    0.0000000000000000 Gd
   0.1422260000000000    0.1422260000000000    0.1422260000000000 Lu
   0.8577740000000000    0.8577740000000000    0.8577740000000000 Lu
   0.5000000000000000    0.5000000000000000    0.5000000000000000 Fe
   0.3326360000000000    0.3326360000000000    0.3326360000000000 Fe
   0.6673640000000000    0.6673640000000000    0.6673640000000000 Fe
   0.0821380000000000    0.5832810000000000    0.5832810000000000 Fe
   0.5832810000000000    0.5832810000000000    0.0821380000000000 Fe
   0.5832810000000000    0.0821380000000000    0.5832810000000000 Fe
   0.4167190000000000    0.9178620000000000    0.4167190000000000 Fe
   0.9178620000000000    0.4167190000000000    0.4167190000000000 Fe
   0.4167190000000000    0.4167190000000000    0.9178620000000000 Fe
