Gd1 Ti2 Fe9
1.0
   4.6637660658596491    0.0000000000000000    6.8781140829441565
   2.1120156366773322    4.1581355924000327    6.8781142736139138
   0.0000000000000000    0.0000000000000000    8.3101840100000004
Gd Ti Fe
1 2 9
direct
   0.0000000000000000    0.0000000000000000    0.0000000000000000 Gd
   0.1446780000000000    0.1446780000000000    0.1446780000000000 Ti
   0.8553220000000000    0.8553220000000000    0.8553220000000000 Ti
   0.4117660000000000    0.4117660000000000    0.9173350000000000 Fe
   0.9173350000000000    0.4117660000000000    0.4117660000000000 Fe
   0.5882340000000000    0.0826650000000000    0.5882340000000000 Fe
   0.5882340000000000    0.5882340000000000    0.0826650000000000 Fe
   0.4117660000000000    0.9173350000000000    0.4117660000000000 Fe
   0.0826650000000000    0.5882340000000000    0.5882340000000000 Fe
   0.3332020000000000    0.3332020000000000    0.3332020000000000 Fe
   0.6667980000000000    0.6667980000000000    0.6667980000000000 Fe
   0.5000000000000000    0.5000000000000000    0.5000000000000000 Fe
