Gd2 Al4 Fe13 C1
1.0
   6.4095028114691122    0.0000000000000000    0.6827412768327038
   0.7599214581551655    6.3642944831951205    0.6827400354182103
   0.0000000000000000    0.0000000000000000    6.4742433799999999
Gd Al Fe C
2 4 13 1
direct
   0.6602950000000000    0.6602950000000000    0.6679420000000000 Gd
   0.3397050000000000    0.3397050000000000    0.3320580000000000 Gd
   0.3492350000000000    0.8556270000000000    0.3413470000000000 Al
   0.8556270000000000    0.3492350000000000    0.3413470000000000 Al
   0.6507650000000000    0.1443730000000000    0.6586530000000000 Al
   0.1443730000000000    0.6507650000000000    0.6586530000000000 Al
   0.9054040000000000    0.9054040000000000    0.9031600000000000 Fe
   0.0945960000000000    0.0945960000000000    0.0968400000000000 Fe
   0.3411050000000000    0.3411050000000000    0.8569870000000001 Fe
   0.6588950000000000    0.6588950000000000    0.1430130000000000 Fe
   0.2829190000000000    0.7170810000000000    0.0000000000000000 Fe
   0.7138280000000000    0.9953240000000000    0.2884800000000000 Fe
   0.0046760000000000    0.2861720000000000    0.7115200000000000 Fe
   0.2861720000000000    0.0046760000000000    0.7115200000000000 Fe
   0.9953240000000000    0.7138280000000000    0.2884800000000000 Fe
   0.7170810000000000    0.2829190000000000    0.0000000000000000 Fe
   0.0000000000000000    0.0000000000000000    0.5000000000000000 Fe
   0.0000000000000000    0.5000000000000000    0.0000000000000000 Fe
   0.5000000000000000    0.0000000000000000    0.0000000000000000 Fe
   0.5000000000000000    0.5000000000000000    0.0000000000000000 C
