Gd1 Nb2 Fe9
1.0
   4.6934349347576125    0.0000000000000000    6.8800763807698742
   2.1232241865211146    4.1857191541893179    6.8800765167946167
   0.0000000000000000    0.0000000000000000    8.3284913899999999
Gd Nb Fe
1 2 9
direct
   0.0000000000000000    0.0000000000000000    0.0000000000000000 Gd
   0.1432970000000000    0.1432970000000000    0.1432970000000000 Nb
   0.8567030000000000    0.8567030000000000    0.8567030000000000 Nb
   0.4126190000000000    0.4126190000000000    0.9169890000000001 Fe
   0.9169890000000001    0.4126190000000000    0.4126190000000000 Fe
   0.5873810000000000    0.0830110000000000    0.5873810000000000 Fe
   0.5873810000000000    0.5873810000000000    0.0830110000000000 Fe
   0.4126190000000000    0.9169890000000001    0.4126190000000000 Fe
   0.0830110000000000    0.5873810000000000    0.5873810000000000 Fe
   0.3332230000000000    0.3332230000000000    0.3332230000000000 Fe
   0.6667770000000000    0.6667770000000000    0.6667770000000000 Fe
   0.5000000000000000    0.5000000000000000    0.5000000000000000 Fe
