Gd6 Fe14 B4
1.0
   5.0865479999999996    0.0000000000000000    0.0000000000000003
  -2.5432739979395294    4.4089229964938719    0.0000000000000003
   0.0000000000000000    0.0000000000000000   14.4430619999999994
Gd Fe B
6 14 4
direct
   0.3334060000000000    0.6668140000000000    0.5349570000000000 Gd
   0.6665940000000000    0.3331860000000000    0.0349570000000000 Gd
   0.6666666666666666    0.3332570000000000    0.4650310000000000 Gd
   0.3333710000000000    0.6667430000000000    0.9650310000000000 Gd
   0.3333690000000000    0.6667400000000000    0.7500070000000000 Gd
   0.6666666666666666    0.3332600000000000    0.2500070000000000 Gd
   0.1661600000000000    0.3323210000000000    0.1457560000000000 Fe
   0.8338400000000000    0.6676790000000000    0.6457560000000000 Fe
   0.9999990000000000    0.9999990000000000    0.0000100000000000 Fe
   0.0000010000000000    0.0000010000000000    0.5000100000000000 Fe
   0.6675290000000000    0.8337020000000001    0.1458060000000000 Fe
   0.1661730000000000    0.8337020000000001    0.1458060000000000 Fe
   0.8338270000000000    0.1662980000000000    0.6458060000000000 Fe
   0.3324710000000000    0.1662980000000000    0.6458060000000000 Fe
   0.8337880000000000    0.6675750000000000    0.8542250000000000 Fe
   0.8337660000000000    0.1663180000000000    0.8541980000000000 Fe
   0.3325530000000000    0.1663180000000000    0.8541980000000000 Fe
   0.6674470000000000    0.8336820000000000    0.3541980000000000 Fe
   0.1662340000000000    0.8336820000000000    0.3541980000000000 Fe
   0.1662120000000000    0.3324250000000000    0.3542250000000000 Fe
   0.3331840000000000    0.6663680000000000    0.2499960000000000 B
   0.6668160000000000    0.3336320000000000    0.7499960000000000 B
   0.0000360000000000    0.0000720000000000    0.2500090000000000 B
   0.9999640000000000    0.9999280000000000    0.7500090000000000 B
