Gd1 Lu2 Fe7 B2
1.0
   4.8044638091185767    0.0000000000000000    6.0631843126852916
   2.1110260276255883    4.3158356068312971    6.0631846170063532
   0.0000000000000000    0.0000000000000000    7.7359599799999996
Gd Lu Fe B
1 2 7 2
direct
   0.5000000000000000    0.5000000000000000    0.5000000000000000 Gd
   0.3561440000000000    0.3561440000000000    0.3561440000000000 Lu
   0.6438560000000000    0.6438560000000000    0.6438560000000000 Lu
   0.0000000000000000    0.0000000000000000    0.0000000000000000 Fe
   0.5728110000000000    0.0681380000000000    0.0681400000000000 Fe
   0.0681380000000000    0.5728110000000000    0.0681400000000000 Fe
   0.9318610000000001    0.9318610000000001    0.4271870000000000 Fe
   0.0681390000000000    0.0681390000000000    0.5728120000000000 Fe
   0.9318610000000001    0.4271880000000000    0.9318600000000000 Fe
   0.4271880000000000    0.9318610000000001    0.9318600000000000 Fe
   0.1677570000000000    0.1677570000000000    0.1677570000000000 B
   0.8322430000000000    0.8322430000000000    0.8322430000000000 B
