Gd2 Y2 Lu2 Fe18
1.0
   5.0738690000000002    0.0000000000000000    0.0000000000000003
  -2.5369339997749876    4.3940989992710415    0.0000000000000003
   0.0000000000000000    0.0000000000000000   16.0253410000000009
Gd Y Lu Fe
2 2 2 18
direct
   0.3333333333333333    0.6666666666666666    0.9633990000000000 Gd
   0.6666666666666666    0.3333333333333333    0.0366010000000000 Gd
   0.3333333333333333    0.6666666666666666    0.7499760000000000 Y
   0.6666666666666666    0.3333333333333333    0.2500240000000000 Y
   0.6666666666666666    0.3333333333333333    0.4634360000000000 Lu
   0.3333333333333333    0.6666666666666666    0.5365640000000000 Lu
   0.1674090000000000    0.8325910000000000    0.3737860000000000 Fe
   0.1674090000000000    0.3348180000000000    0.3737860000000000 Fe
   0.6651820000000001    0.8325910000000000    0.3737860000000000 Fe
   0.8325910000000000    0.1674090000000000    0.6262140000000000 Fe
   0.8325910000000000    0.6651820000000001    0.6262140000000000 Fe
   0.3348180000000000    0.1674090000000000    0.6262140000000000 Fe
   0.8326430000000000    0.1673570000000000    0.8736840000000000 Fe
   0.8326430000000000    0.6652860000000000    0.8736840000000000 Fe
   0.3347140000000000    0.1673570000000000    0.8736840000000000 Fe
   0.1673570000000000    0.8326430000000000    0.1263160000000000 Fe
   0.1673570000000000    0.3347140000000000    0.1263160000000000 Fe
   0.6652860000000000    0.8326430000000000    0.1263160000000000 Fe
   0.3333333333333333    0.6666666666666666    0.2499750000000000 Fe
   0.6666666666666666    0.3333333333333333    0.7500250000000001 Fe
   0.0000000000000000    0.0000000000000000    0.2499870000000000 Fe
   0.0000000000000000    0.0000000000000000    0.7500130000000000 Fe
   0.0000000000000000    0.0000000000000000    0.5000000000000000 Fe
   0.0000000000000000    0.0000000000000000    0.0000000000000000 Fe
