Gd3 Y3 Co23
1.0
   7.2458944684620716    0.0000000000000000    4.1839024334030954
  -4.8312562907299759    6.8314093030363674   -0.0000912933472910
   0.0000000000000000    0.0000000000000000    8.3659840100000000
Gd Y Co
3 3 23
direct
   0.4273530000000000    0.7135970000000000    0.2864550000000000 Gd
   0.9999870000000000    0.2862020000000000    0.2864310000000000 Gd
   0.9998140000000000    0.7137019999999999    0.2865300000000000 Gd
   0.5709940000000000    0.2856000000000000    0.7145240000000000 Y
   0.9999240000000000    0.7144730000000000    0.7144680000000000 Y
   0.0001060000000000    0.2855370000000000    0.7143990000000000 Y
   0.6447090000000000    0.3223690000000000    0.0328790000000000 Co
   0.3551850000000000    0.3221260000000000    0.3226970000000000 Co
   0.3551440000000000    0.0330600000000000    0.3226960000000000 Co
   0.6442369999999999    0.3221560000000000    0.3227070000000000 Co
   0.3556200000000000    0.6777760000000000    0.9665970000000000 Co
   0.6446870000000000    0.6775460000000000    0.6777420000000000 Co
   0.6447250000000000    0.9671310000000000    0.6777360000000000 Co
   0.3551330000000000    0.6775270000000000    0.6777270000000000 Co
   0.0008990000000000    0.0004540000000000    0.9986699999999999 Co
   0.2477960000000000    0.1239090000000000    0.6283060000000000 Co
   0.7524520000000000    0.1235690000000000    0.1239920000000000 Co
   0.7524140000000000    0.6288550000000001    0.1240200000000000 Co
   0.2470920000000000    0.1235570000000000    0.1240160000000000 Co
   0.7528340000000000    0.8763919999999999    0.3707710000000000 Co
   0.2475120000000000    0.8760770000000000    0.8764100000000000 Co
   0.2475220000000000    0.3714410000000000    0.8764010000000000 Co
   0.7521580000000000    0.8760750000000000    0.8763840000000001 Co
   0.9998310000000000    0.9999169999999999    0.5000300000000000 Co
   0.5000670000000000    0.5001390000000000    0.5000230000000000 Co
   0.5000540000000000    0.9999310000000000    0.5000340000000000 Co
   0.9998190000000000    0.4999150000000000    0.9991250000000000 Co
   0.5009680000000000    0.0010570000000000    0.9991070000000000 Co
   0.5009610000000000    0.4999090000000000    0.9991220000000000 Co
