Gd2 Be2 Al1 Fe14 C3
1.0
   6.3403471473244668    0.0000000000000000    0.7492788805535753
   0.6044672264932782    6.3114667174382664    0.7492780296180019
   0.0000000000000000    0.0000000000000000    6.4088093800000001
Gd Be Al Fe C
2 2 1 14 3
direct
   0.6551380000000000    0.6551380000000000    0.6556320000000000 Gd
   0.3448620000000000    0.3448620000000000    0.3443680000000000 Gd
   0.5000000000000000    0.0000000000000000    0.0000000000000000 Be
   0.0000000000000000    0.5000000000000000    0.0000000000000000 Be
   0.0000000000000000    0.0000000000000000    0.5000000000000000 Al
   0.7171940000000000    0.2828060000000000    0.0000000000000000 Fe
   0.9997030000000000    0.7113530000000000    0.2762520000000000 Fe
   0.2886470000000000    0.0002970000000000    0.7237479999999999 Fe
   0.0002970000000000    0.2886470000000000    0.7237479999999999 Fe
   0.7113530000000000    0.9997030000000000    0.2762520000000000 Fe
   0.2828060000000000    0.7171940000000000    0.0000000000000000 Fe
   0.3480150000000000    0.8556220000000000    0.3338090000000000 Fe
   0.3390820000000000    0.3390820000000000    0.8624700000000000 Fe
   0.8556220000000000    0.3480150000000000    0.3338090000000000 Fe
   0.6519850000000000    0.1443780000000000    0.6661910000000000 Fe
   0.6609180000000000    0.6609180000000000    0.1375300000000000 Fe
   0.1443780000000000    0.6519850000000000    0.6661910000000000 Fe
   0.9005090000000000    0.9005090000000000    0.9090920000000000 Fe
   0.0994910000000000    0.0994910000000000    0.0909080000000000 Fe
   0.5000000000000000    0.5000000000000000    0.0000000000000000 C
   0.0000000000000000    0.5000000000000000    0.5000000000000000 C
   0.5000000000000000    0.0000000000000000    0.5000000000000000 C
