Gd5 Y1 Fe18
1.0
   5.0678440000000000    0.0000000000000000    0.0000000000000003
  -2.5339230017174623    4.3888820033820810    0.0000000000000003
   0.0000000000000000    0.0000000000000000   16.0440110000000011
Gd Y Fe
5 1 18
direct
   0.3333333333333333    0.6666666666666666    0.9629650000000000 Gd
   0.6666666666666666    0.3333333333333333    0.0368970000000000 Gd
   0.6666666666666666    0.3333333333333333    0.4631030000000000 Gd
   0.3333333333333333    0.6666666666666666    0.5370350000000000 Gd
   0.3333333333333333    0.6666666666666666    0.7500000000000000 Gd
   0.6666666666666666    0.3333333333333333    0.2500000000000000 Y
   0.1673150000000000    0.8326850000000000    0.3728480000000000 Fe
   0.1673150000000000    0.3346310000000000    0.3728480000000000 Fe
   0.6653690000000000    0.8326850000000000    0.3728480000000000 Fe
   0.8327450000000000    0.1672550000000000    0.6275180000000000 Fe
   0.8327450000000000    0.6654900000000000    0.6275180000000000 Fe
   0.3345100000000000    0.1672550000000000    0.6275180000000000 Fe
   0.8327450000000000    0.1672550000000000    0.8724820000000000 Fe
   0.8327450000000000    0.6654900000000000    0.8724820000000000 Fe
   0.3345100000000000    0.1672550000000000    0.8724820000000000 Fe
   0.1673150000000000    0.8326850000000000    0.1271520000000000 Fe
   0.1673150000000000    0.3346310000000000    0.1271520000000000 Fe
   0.6653690000000000    0.8326850000000000    0.1271520000000000 Fe
   0.3333333333333333    0.6666666666666666    0.2500000000000000 Fe
   0.6666666666666666    0.3333333333333333    0.7500000000000000 Fe
   0.0000000000000000    0.0000000000000000    0.2500000000000000 Fe
   0.0000000000000000    0.0000000000000000    0.7500000000000000 Fe
   0.0000000000000000    0.0000000000000000    0.4998860000000000 Fe
   0.0000000000000000    0.0000000000000000    0.0001140000000000 Fe
