Gd4 Cr1 Fe19 P12
1.0
   3.6421969999999999    0.0000000000000000    0.0000000000000002
  -0.0000000000000006   10.2550097697084261    0.0058178617353470
   0.0000000000000000    0.0000000000000000   11.8012864700000009
Gd Cr Fe P
4 1 19 12
direct
   0.2500000000000000    0.5808820000000000    0.7043000000000000 Gd
   0.2500000000000000    0.9194500000000000    0.2047540000000000 Gd
   0.7500000000000000    0.4197880000000000    0.2960330000000000 Gd
   0.7500000000000000    0.0806590000000000    0.7947840000000000 Gd
   0.2500000000000000    0.7035650000000000    0.9895460000000000 Cr
   0.2500000000000000    0.7917870000000000    0.4886410000000000 Fe
   0.7500000000000000    0.2926860000000000    0.0117180000000000 Fe
   0.7500000000000000    0.2080930000000000    0.5112470000000000 Fe
   0.2500000000000000    0.4053760000000000    0.4896290000000000 Fe
   0.2500000000000000    0.0950860000000000    0.9898140000000000 Fe
   0.7500000000000000    0.5941170000000000    0.5105010000000000 Fe
   0.7500000000000000    0.9058940000000000    0.0098560000000000 Fe
   0.2500000000000000    0.2199020000000000    0.1764340000000000 Fe
   0.2500000000000000    0.2808330000000000    0.6764010000000000 Fe
   0.7500000000000000    0.7821669999999999    0.8228910000000000 Fe
   0.7500000000000000    0.7193240000000000    0.3248410000000000 Fe
   0.2500000000000000    0.8764990000000000    0.7006250000000001 Fe
   0.2500000000000000    0.6243450000000000    0.2022420000000000 Fe
   0.7500000000000000    0.1239440000000000    0.2989820000000000 Fe
   0.7500000000000000    0.3757390000000000    0.7989380000000000 Fe
   0.2500000000000000    0.4620450000000000    0.9324560000000000 Fe
   0.2500000000000000    0.0370100000000000    0.4322840000000000 Fe
   0.7500000000000000    0.5342249999999999    0.0668870000000000 Fe
   0.7500000000000000    0.9635010000000001    0.5671300000000000 Fe
   0.2500000000000000    0.4223710000000000    0.1140790000000000 P
   0.2500000000000000    0.0780700000000000    0.6128780000000000 P
   0.7500000000000000    0.5783290000000000    0.8860800000000000 P
   0.7500000000000000    0.9218360000000000    0.3867240000000000 P
   0.2500000000000000    0.2639410000000000    0.8709930000000000 P
   0.2500000000000000    0.2348500000000000    0.3709570000000000 P
   0.7500000000000000    0.7340040000000000    0.1315520000000000 P
   0.7500000000000000    0.7651120000000000    0.6281270000000000 P
   0.2500000000000000    0.6007020000000000    0.3953990000000000 P
   0.2500000000000000    0.9032590000000000    0.8936880000000000 P
   0.7500000000000000    0.3995410000000000    0.6038530000000000 P
   0.7500000000000000    0.1010690000000000    0.1047370000000000 P
