Gd2 Fe17 C3
1.0
   6.4633796780128732    0.0000000000000000    0.7302576055999365
   0.6523976386410116    6.4303696770283292    0.7302576055999365
   0.0000000000000000    0.0000000000000000    6.5045027199999996
Gd Fe C
2 17 3
direct
   0.6610140000000000    0.6610140000000000    0.6610140000000000 Gd
   0.3389860000000000    0.3389860000000000    0.3389860000000000 Gd
   0.0000000000000000    0.0000000000000000    0.5000000000000000 Fe
   0.5000000000000000    0.0000000000000000    0.0000000000000000 Fe
   0.0000000000000000    0.5000000000000000    0.0000000000000000 Fe
   0.7155060000000000    0.2844940000000000    0.0000000000000000 Fe
   0.0000000000000000    0.7155060000000000    0.2844940000000000 Fe
   0.2844940000000000    0.0000000000000000    0.7155060000000000 Fe
   0.0000000000000000    0.2844940000000000    0.7155060000000000 Fe
   0.7155060000000000    0.0000000000000000    0.2844940000000000 Fe
   0.2844940000000000    0.7155060000000000    0.0000000000000000 Fe
   0.3448180000000000    0.3448180000000000    0.8546170000000000 Fe
   0.8546170000000000    0.3448180000000000    0.3448180000000000 Fe
   0.3448180000000000    0.8546170000000000    0.3448180000000000 Fe
   0.6551820000000000    0.6551820000000000    0.1453830000000000 Fe
   0.1453830000000000    0.6551820000000000    0.6551820000000000 Fe
   0.6551820000000000    0.1453830000000000    0.6551820000000000 Fe
   0.9053630000000000    0.9053630000000000    0.9053630000000000 Fe
   0.0946370000000000    0.0946370000000000    0.0946370000000000 Fe
   0.5000000000000000    0.5000000000000000    0.0000000000000000 C
   0.0000000000000000    0.5000000000000000    0.5000000000000000 C
   0.5000000000000000    0.0000000000000000    0.5000000000000000 C
