Gd2 Y1 Fe8 Ru1
1.0
   4.8596051106828453    0.0000000000000000    1.4766412275722611
   2.2054559055846163    4.3303283934970471    1.4766415245536046
   0.0000000000000000    0.0000000000000000    8.7347638599999993
Gd Y Fe Ru
2 1 8 1
direct
   0.1417200000000000    0.1417200000000000    0.5748390000000000 Gd
   0.8582800000000000    0.8582800000000000    0.4251610000000000 Gd
   0.0000000000000000    0.0000000000000000    0.0000000000000000 Y
   0.0767270000000000    0.5822929999999999    0.7586860000000000 Fe
   0.5822929999999999    0.5822929999999999    0.7586860000000000 Fe
   0.5822929999999999    0.0767270000000000    0.7586860000000000 Fe
   0.9232730000000000    0.4177070000000000    0.2413140000000000 Fe
   0.4177070000000000    0.4177070000000000    0.2413140000000000 Fe
   0.4177070000000000    0.9232730000000000    0.2413140000000000 Fe
   0.3332200000000000    0.3332200000000000    0.0003400000000000 Fe
   0.6667800000000000    0.6667800000000000    0.9996600000000000 Fe
   0.5000000000000000    0.5000000000000000    0.5000000000000000 Ru
