Gd5 Fe18 P12 Pt1
1.0
  11.9811750000000004    0.0000000000000000    0.0000000000000007
  -5.9905880008303836   10.3760030021261045    0.0000000000000007
   0.0000000000000000    0.0000000000000000    3.6943340000000000
Gd Fe P Pt
5 18 12 1
direct
   0.6666666666666666    0.3333333333333333    0.0000000000000000 Gd
   0.3333333333333333    0.6666666666666666    0.0000000000000000 Gd
   0.1927500000000000    0.1927500000000000    0.5000000000000000 Gd
   0.8072500000000000    0.0000000000000000    0.5000000000000000 Gd
   0.0000000000000000    0.8072500000000000    0.5000000000000000 Gd
   0.8162950000000000    0.1978290000000000    0.0000000000000000 Fe
   0.8021710000000000    0.6184660000000000    0.0000000000000000 Fe
   0.3815340000000000    0.1837050000000000    0.0000000000000000 Fe
   0.1978290000000000    0.8162950000000000    0.0000000000000000 Fe
   0.6184660000000000    0.8021710000000000    0.0000000000000000 Fe
   0.1837050000000000    0.3815340000000000    0.0000000000000000 Fe
   0.5573979999999999    0.5573979999999999    0.0000000000000000 Fe
   0.4426020000000000    0.0000000000000000    0.0000000000000000 Fe
   0.0000000000000000    0.4426020000000000    0.0000000000000000 Fe
   0.6372850000000000    0.1219090000000000    0.5000000000000000 Fe
   0.8780910000000000    0.5153759999999999    0.5000000000000000 Fe
   0.4846240000000000    0.3627150000000000    0.5000000000000000 Fe
   0.1219090000000000    0.6372850000000000    0.5000000000000000 Fe
   0.5153759999999999    0.8780910000000000    0.5000000000000000 Fe
   0.3627150000000000    0.4846240000000000    0.5000000000000000 Fe
   0.7120870000000000    0.7120870000000000    0.5000000000000000 Fe
   0.2879130000000000    0.0000000000000000    0.5000000000000000 Fe
   0.0000000000000000    0.2879130000000000    0.5000000000000000 Fe
   0.3721040000000000    0.3721040000000000    0.0000000000000000 P
   0.6278960000000000    0.0000000000000000    0.0000000000000000 P
   0.0000000000000000    0.6278960000000000    0.0000000000000000 P
   0.8309680000000000    0.3108770000000000    0.5000000000000000 P
   0.6891230000000000    0.5200910000000000    0.5000000000000000 P
   0.4799090000000000    0.1690320000000000    0.5000000000000000 P
   0.3108770000000000    0.8309680000000000    0.5000000000000000 P
   0.5200910000000000    0.6891230000000000    0.5000000000000000 P
   0.1690320000000000    0.4799090000000000    0.5000000000000000 P
   0.8046850000000000    0.8046850000000000    0.0000000000000000 P
   0.1953150000000000    0.0000000000000000    0.0000000000000000 P
   0.0000000000000000    0.1953150000000000    0.0000000000000000 P
   0.0000000000000000    0.0000000000000000    0.0000000000000000 Pt
