Gd2 Y2 Fe20 P12
1.0
  11.8070620000000002    0.0000000000000000    0.0000000000000007
  -0.0000000000000002    3.6470389999999999    0.0000000000000002
   0.0000000000000000    0.0000000000000000   10.2847089999999994
Gd Y Fe P
2 2 20 12
direct
   0.7045270000000000    0.2499990000000000    0.5804380000000000 Gd
   0.2045270000000000    0.2499990000000000    0.9195620000000000 Gd
   0.7955240000000000    0.7500000000000000    0.0808430000000000 Y
   0.2955240000000000    0.7500000000000000    0.4191570000000000 Y
   0.4318440000000000    0.2499990000000000    0.0362420000000000 Fe
   0.9909880000000000    0.2499990000000000    0.0945410000000000 Fe
   0.2983480000000000    0.7500000000000000    0.1234610000000000 Fe
   0.5111160000000000    0.7500000000000000    0.2081730000000000 Fe
   0.1764970000000000    0.2499990000000000    0.2189090000000000 Fe
   0.6764960000000000    0.2499990000000000    0.2810910000000000 Fe
   0.0111150000000000    0.7500000000000000    0.2918270000000000 Fe
   0.7983479999999999    0.7500000000000000    0.3765390000000000 Fe
   0.4909880000000000    0.2499990000000000    0.4054600000000000 Fe
   0.9318450000000000    0.2499990000000000    0.4637580000000000 Fe
   0.0670940000000000    0.7500000000000000    0.5374570000000000 Fe
   0.5105330000000000    0.7500000000000000    0.5947340000000000 Fe
   0.2011590000000000    0.2499990000000000    0.6251800000000000 Fe
   0.9889340000000000    0.2499990000000000    0.7082410000000000 Fe
   0.3234060000000000    0.7500000000000000    0.7198970000000000 Fe
   0.8234060000000000    0.7500000000000000    0.7801030000000000 Fe
   0.4889340000000000    0.2499990000000000    0.7917590000000000 Fe
   0.7011590000000000    0.2499990000000000    0.8748200000000000 Fe
   0.0105330000000000    0.7500000000000000    0.9052660000000000 Fe
   0.5670940000000000    0.7500000000000000    0.9625430000000000 Fe
   0.6118830000000000    0.2499990000000000    0.0780630000000000 P
   0.1040570000000000    0.7500000000000000    0.1001840000000000 P
   0.3721200000000000    0.2499990000000000    0.2334550000000000 P
   0.8721210000000000    0.2499990000000000    0.2665450000000000 P
   0.6040560000000000    0.7500000000000000    0.3998160000000000 P
   0.1118830000000000    0.2499990000000000    0.4219370000000000 P
   0.8865150000000001    0.7500000000000000    0.5779140000000000 P
   0.3967900000000000    0.2499990000000000    0.6015360000000000 P
   0.1286640000000000    0.7500000000000000    0.7349320000000000 P
   0.6286640000000000    0.7500000000000000    0.7650680000000000 P
   0.8967889999999999    0.2499990000000000    0.8984640000000000 P
   0.3865150000000000    0.7500000000000000    0.9220860000000000 P
