Gd2 Al2 Fe15 C3
1.0
   6.4556544993737157    0.0000000000000000    0.7412831451115374
   0.7064602841611333    6.4168826190354427    0.7412832109138975
   0.0000000000000000    0.0000000000000000    6.4572560100000000
Gd Al Fe C
2 2 15 3
direct
   0.6565650000000000    0.6565650000000000    0.6555170000000000 Gd
   0.3434350000000000    0.3434350000000000    0.3444830000000000 Gd
   0.5000000000000000    0.0000000000000000    0.0000000000000000 Al
   0.0000000000000000    0.5000000000000000    0.0000000000000000 Al
   0.0000000000000000    0.0000000000000000    0.5000000000000000 Fe
   0.7161410000000000    0.2838590000000000    0.0000000000000000 Fe
   0.9984630000000000    0.7171550000000000    0.2866620000000000 Fe
   0.2828450000000000    0.0015370000000000    0.7133380000000000 Fe
   0.0015370000000000    0.2828450000000000    0.7133380000000000 Fe
   0.7171550000000000    0.9984630000000000    0.2866620000000000 Fe
   0.2838590000000000    0.7161410000000000    0.0000000000000000 Fe
   0.3416750000000000    0.8534970000000000    0.3462820000000000 Fe
   0.3469420000000000    0.3469420000000000    0.8512450000000000 Fe
   0.8534970000000000    0.3416750000000000    0.3462820000000000 Fe
   0.6583250000000000    0.1465030000000000    0.6537180000000000 Fe
   0.6530580000000000    0.6530580000000000    0.1487550000000000 Fe
   0.1465030000000000    0.6583250000000000    0.6537180000000000 Fe
   0.9062650000000000    0.9062650000000000    0.9032650000000000 Fe
   0.0937350000000000    0.0937350000000000    0.0967350000000000 Fe
   0.5000000000000000    0.5000000000000000    0.0000000000000000 C
   0.0000000000000000    0.5000000000000000    0.5000000000000000 C
   0.5000000000000000    0.0000000000000000    0.5000000000000000 C
