Gd1 Hf1 Nb1 Fe9
1.0
   4.7217967931859732    0.0000000000000000    6.9524405148842563
   2.1376979849790176    4.2101799966261630    6.9524405055918699
   0.0000000000000000    0.0000000000000000    8.4042730100000007
Gd Hf Nb Fe
1 1 1 9
direct
   0.9999660000000000    0.9999660000000000    0.9999660000000000 Gd
   0.8562149999999999    0.8562149999999999    0.8562149999999999 Hf
   0.1430460000000000    0.1430460000000000    0.1430460000000000 Nb
   0.5000130000000000    0.5000130000000000    0.5000130000000000 Fe
   0.3335010000000000    0.3335010000000000    0.3335010000000000 Fe
   0.6667530000000000    0.6667530000000000    0.6667530000000000 Fe
   0.0822960000000000    0.5872880000000000    0.5872880000000000 Fe
   0.5872880000000000    0.5872880000000000    0.0822960000000000 Fe
   0.5872880000000000    0.0822960000000000    0.5872880000000000 Fe
   0.4128640000000000    0.9179060000000000    0.4128640000000000 Fe
   0.9179060000000000    0.4128640000000000    0.4128640000000000 Fe
   0.4128640000000000    0.4128640000000000    0.9179060000000000 Fe
