Gd2 Fe11 Co1 P7
1.0
   3.6470870000000000    0.0000000000000000    0.0000000000000002
  -0.0000000000000005    7.7683159968865620   -4.4826279979164507
   0.0000000000000000    0.0000000000000000    8.9450570000000003
Gd Fe Co P
2 11 1 7
direct
   0.0000000000000000    0.6659170000000000    0.3330810000000000 Gd
   0.5000000000000000    0.3335030000000000    0.6673240000000000 Gd
   0.0000000000000000    0.3692290000000000    0.9445090000000000 Fe
   0.0000000000000000    0.0562660000000000    0.4266190000000000 Fe
   0.0000000000000000    0.5737290000000000    0.6312320000000000 Fe
   0.0000000000000000    0.8809090000000001    0.7246880000000000 Fe
   0.0000000000000000    0.2739340000000000    0.1550910000000000 Fe
   0.0000000000000000    0.8456870000000000    0.1191780000000000 Fe
   0.5000000000000000    0.4324360000000000    0.3838520000000000 Fe
   0.5000000000000000    0.6160880000000000    0.0491880000000000 Fe
   0.5000000000000000    0.1195100000000000    0.9027860000000000 Fe
   0.5000000000000000    0.0957580000000000    0.2142750000000000 Fe
   0.5000000000000000    0.7876600000000000    0.8826020000000000 Fe
   0.5000000000000000    0.9494570000000000    0.5643400000000000 Co
   0.0000000000000000    0.1126530000000000    0.7023290000000000 P
   0.0000000000000000    0.2988290000000000    0.4119620000000000 P
   0.0000000000000000    0.5889170000000000    0.8888080000000000 P
   0.5000000000000000    0.7103120000000001    0.6007090000000000 P
   0.5000000000000000    0.4012800000000000    0.1113410000000000 P
   0.5000000000000000    0.8882989999999999    0.2872090000000000 P
   0.0000000000000000    0.9996240000000000    0.9988730000000000 P
