Sm1 Gd1 Co17
1.0
   6.2138735221282140    0.0000000000000000    0.7634686991841855
   0.6754057827329458    6.1770586085644874    0.7634684546163603
   0.0000000000000000    0.0000000000000000    6.2605997000000002
Sm Gd Co
1 1 17
direct
   0.3442438100000000    0.3442438100000000    0.3442438100000000 Sm
   0.6561180200000000    0.6561180200000000    0.6561180200000000 Gd
   0.7116137400000000    0.9995531500000000    0.2883021000000000 Co
   0.9995531500000000    0.2883021000000000    0.7116137400000000 Co
   0.2883021000000000    0.7116137400000000    0.9995531500000000 Co
   0.9995531500000000    0.7116137400000000    0.2883021000000000 Co
   0.7116137400000000    0.2883021000000000    0.9995531500000000 Co
   0.2883021000000000    0.9995531500000000    0.7116137400000000 Co
   0.3425555900000000    0.8476839900000001    0.3425555900000000 Co
   0.8476839900000001    0.3425555900000000    0.3425555900000000 Co
   0.3425555900000000    0.3425555900000000    0.8476839900000001 Co
   0.6581327900000000    0.1526441400000000    0.6581327900000000 Co
   0.1526441400000000    0.6581327900000000    0.6581327900000000 Co
   0.6581327900000000    0.6581327900000000    0.1526441400000000 Co
   0.9995449500000000    0.5001502100000000    0.9995449500000000 Co
   0.5001502100000000    0.9995449500000000    0.9995449500000000 Co
   0.9995449500000000    0.9995449500000000    0.5001502100000000 Co
   0.9055228300000000    0.9055228300000000    0.9055228300000000 Co
   0.0942303400000000    0.0942303400000000    0.0942303400000000 Co
