Gd1 Hf1 Fe12 P7
1.0
   8.8894599999999997    0.0000000000000000    0.0000000000000005
  -4.4447300006184820    7.6984980008164499    0.0000000000000005
   0.0000000000000000    0.0000000000000000    3.6228449999999999
Gd Hf Fe P
1 1 12 7
direct
   0.3333333333333333    0.6666666666666666    0.0000000000000000 Gd
   0.0000000000000000    0.0000000000000000    0.5000000000000000 Hf
   0.7304040000000001    0.7595710000000000    0.0000000000000000 Fe
   0.2404290000000000    0.9708329999999999    0.0000000000000000 Fe
   0.0291670000000000    0.2695960000000000    0.0000000000000000 Fe
   0.9422960000000000    0.4908100000000000    0.0000000000000000 Fe
   0.5091900000000000    0.4514850000000000    0.0000000000000000 Fe
   0.5485150000000000    0.0577040000000000    0.0000000000000000 Fe
   0.0997600000000000    0.7235660000000000    0.5000000000000000 Fe
   0.2764340000000000    0.3761940000000000    0.5000000000000000 Fe
   0.6238060000000000    0.9002400000000000    0.5000000000000000 Fe
   0.7608960000000000    0.5443320000000000    0.5000000000000000 Fe
   0.4556680000000000    0.2165650000000000    0.5000000000000000 Fe
   0.7834350000000000    0.2391040000000000    0.5000000000000000 Fe
   0.9700340000000000    0.7512250000000000    0.0000000000000000 P
   0.2487750000000000    0.2188080000000000    0.0000000000000000 P
   0.7811920000000000    0.0299660000000000    0.0000000000000000 P
   0.0661800000000000    0.4466780000000000    0.5000000000000000 P
   0.5533220000000000    0.6195000000000001    0.5000000000000000 P
   0.3805000000000000    0.9338200000000000    0.5000000000000000 P
   0.6666666666666666    0.3333333333333333    0.0000000000000000 P
