Gd2 Sc2 Fe20 P12
1.0
   3.6222059999999998    0.0000000000000000    0.0000000000000002
  -0.0000000000000006   10.2235569999999996    0.0000000000000006
   0.0000000000000000    0.0000000000000000   11.7321749999999998
Gd Sc Fe P
2 2 20 12
direct
   0.7500000000000000    0.4192960000000000    0.2949140000000000 Gd
   0.7500000000000000    0.0807040000000000    0.7949140000000000 Gd
   0.2500000000000000    0.5793430000000001    0.7038300000000000 Sc
   0.2500000000000000    0.9206569999999999    0.2038300000000000 Sc
   0.2500000000000000    0.7095530000000000    0.9896080000000000 Fe
   0.2500000000000000    0.7904470000000000    0.4896080000000000 Fe
   0.7500000000000000    0.2924050000000000    0.0115110000000000 Fe
   0.7500000000000000    0.2075950000000000    0.5115110000000000 Fe
   0.2500000000000000    0.4056460000000000    0.4911720000000000 Fe
   0.2500000000000000    0.0943550000000000    0.9911720000000001 Fe
   0.7500000000000000    0.5937150000000000    0.5125020000000000 Fe
   0.7500000000000000    0.9062850000000000    0.0125020000000000 Fe
   0.2500000000000000    0.2193640000000000    0.1766180000000000 Fe
   0.2500000000000000    0.2806360000000000    0.6766180000000001 Fe
   0.7500000000000000    0.7799320000000000    0.8238680000000000 Fe
   0.7500000000000000    0.7200680000000000    0.3238680000000000 Fe
   0.2500000000000000    0.8736710000000000    0.7009970000000000 Fe
   0.2500000000000000    0.6263290000000000    0.2009970000000000 Fe
   0.7500000000000000    0.1220290000000000    0.2977540000000000 Fe
   0.7500000000000000    0.3779710000000000    0.7977540000000000 Fe
   0.2500000000000000    0.4655830000000000    0.9304210000000001 Fe
   0.2500000000000000    0.0344170000000000    0.4304210000000000 Fe
   0.7500000000000000    0.5400830000000000    0.0666090000000000 Fe
   0.7500000000000000    0.9599170000000000    0.5666090000000000 Fe
   0.2500000000000000    0.4225170000000000    0.1119150000000000 P
   0.2500000000000000    0.0774830000000000    0.6119150000000000 P
   0.7500000000000000    0.5785910000000000    0.8835440000000000 P
   0.7500000000000000    0.9214090000000000    0.3835440000000000 P
   0.2500000000000000    0.2658190000000000    0.8720090000000000 P
   0.2500000000000000    0.2341810000000000    0.3720090000000000 P
   0.7500000000000000    0.7388900000000000    0.1303880000000000 P
   0.7500000000000000    0.7611100000000000    0.6303879999999999 P
   0.2500000000000000    0.6002990000000000    0.3964480000000000 P
   0.2500000000000000    0.8997010000000000    0.8964480000000000 P
   0.7500000000000000    0.4011350000000000    0.6058920000000000 P
   0.7500000000000000    0.0988650000000000    0.1058920000000000 P
