Gd4 Fe13 Co1
1.0
   4.9547180051600588    0.0000000000000000    1.0413438147415301
   2.3679288867997079    4.3522583038727438    1.0413436526385860
   0.0000000000000000    0.0000000000000000   12.3079580600000007
Gd Fe Co
4 13 1
direct
   0.9474680000000000    0.9474680000000000    0.1575960000000000 Gd
   0.0525320000000000    0.0525320000000000    0.8424040000000000 Gd
   0.8502600000000000    0.8502600000000000    0.4492170000000000 Gd
   0.1497400000000000    0.1497400000000000    0.5507830000000000 Gd
   0.7212370000000000    0.7212370000000000    0.8362889999999999 Fe
   0.2787630000000000    0.2787630000000000    0.1637110000000000 Fe
   0.6124060000000000    0.6124060000000000    0.1627810000000000 Fe
   0.3875940000000000    0.3875940000000000    0.8372190000000000 Fe
   0.0000000000000000    0.5000000000000000    0.0000000000000000 Fe
   0.5000000000000000    0.0000000000000000    0.0000000000000000 Fe
   0.5000000000000000    0.5000000000000000    0.0000000000000000 Fe
   0.3897400000000000    0.3897400000000000    0.3291750000000000 Fe
   0.8913450000000001    0.3897400000000000    0.3291750000000000 Fe
   0.3897400000000000    0.8913450000000001    0.3291750000000000 Fe
   0.6102600000000000    0.6102600000000000    0.6708250000000000 Fe
   0.1086550000000000    0.6102600000000000    0.6708250000000000 Fe
   0.6102600000000000    0.1086550000000000    0.6708250000000000 Fe
   0.5000000000000000    0.5000000000000000    0.5000000000000000 Co
