Gd2 Y2 Fe12 Co2
1.0
   4.9725128100854725    0.0000000000000000    1.0385231412675895
   2.3790070833131121    4.3671216884602000    1.0327801321865255
   0.0000000000000000    0.0000000000000000   12.4236170000000001
Gd Y Fe Co
2 2 12 2
direct
   0.1499200000000000    0.1489200000000000    0.5512390000000000 Gd
   0.8506520000000000    0.8513269999999999    0.4473680000000000 Gd
   0.0519080000000000    0.0519930000000000    0.8441900000000000 Y
   0.9482370000000000    0.9480790000000000    0.1554480000000000 Y
   0.2786390000000000    0.2779990000000000    0.1647220000000000 Fe
   0.7220430000000000    0.7209250000000000    0.8349890000000000 Fe
   0.3878290000000000    0.3883030000000000    0.8360400000000000 Fe
   0.6117830000000000    0.6125010000000000    0.1639320000000000 Fe
   0.5001970000000000    0.5000460000000000    0.9999980000000001 Fe
   0.4998450000000000    0.0002910000000000    0.0000190000000000 Fe
   0.9997600000000000    0.5000460000000000    0.9999980000000001 Fe
   0.1090590000000000    0.6095200000000000    0.6720910000000000 Fe
   0.6093320000000000    0.6095200000000000    0.6720910000000000 Fe
   0.6097200000000000    0.1084400000000000    0.6721210000000000 Fe
   0.8904250000000000    0.3905570000000000    0.3284450000000000 Fe
   0.3905730000000000    0.3905570000000000    0.3284450000000000 Fe
   0.4996330000000000    0.4997260000000000    0.5010090000000000 Co
   0.3904450000000000    0.8912530000000000    0.3278580000000000 Co
