Ce4 Gd1 Fe18 Co1 P12
1.0
  11.9932920000000003    0.0000000000000000    0.0000000000000007
  -5.9966459992191634   10.3864959977887032    0.0000000000000007
   0.0000000000000000    0.0000000000000000    3.7255530000000001
Ce Gd Fe Co P
4 1 18 1 12
direct
   0.6666666666666666    0.3333333333333333    0.0000000000000000 Ce
   0.1876670000000000    0.1864510000000000    0.5000000000000000 Ce
   0.8135490000000000    0.0012160000000000    0.5000000000000000 Ce
   0.9987840000000000    0.8123330000000000    0.5000000000000000 Ce
   0.3333333333333333    0.6666666666666666    0.0000000000000000 Gd
   0.8198610000000000    0.1971980000000000    0.0000000000000000 Fe
   0.8028020000000000    0.6226610000000000    0.0000000000000000 Fe
   0.3773390000000000    0.1801390000000000    0.0000000000000000 Fe
   0.1965450000000000    0.8163049999999999    0.0000000000000000 Fe
   0.6197589999999999    0.8034550000000000    0.0000000000000000 Fe
   0.1836950000000000    0.3802410000000000    0.0000000000000000 Fe
   0.5594000000000000    0.5595310000000000    0.0000000000000000 Fe
   0.4404690000000000    0.9998690000000000    0.0000000000000000 Fe
   0.0001310000000000    0.4406000000000000    0.0000000000000000 Fe
   0.6376550000000000    0.1226870000000000    0.5000000000000000 Fe
   0.8773130000000000    0.5149670000000000    0.5000000000000000 Fe
   0.4850330000000000    0.3623450000000000    0.5000000000000000 Fe
   0.1215490000000000    0.6360870000000000    0.5000000000000000 Fe
   0.5145380000000001    0.8784510000000000    0.5000000000000000 Fe
   0.3639130000000000    0.4854620000000000    0.5000000000000000 Fe
   0.7123650000000000    0.7150069999999999    0.5000000000000000 Fe
   0.2849930000000000    0.9973580000000000    0.5000000000000000 Fe
   0.0026420000000000    0.2876350000000000    0.5000000000000000 Fe
   0.0000000000000000    0.0000000000000000    0.0000000000000000 Co
   0.3750730000000000    0.3744120000000000    0.0000000000000000 P
   0.6255880000000000    0.0006610000000000    0.0000000000000000 P
   0.9993390000000000    0.6249270000000000    0.0000000000000000 P
   0.8350340000000001    0.3103600000000000    0.5000000000000000 P
   0.6896400000000000    0.5246740000000000    0.5000000000000000 P
   0.4753260000000000    0.1649660000000000    0.5000000000000000 P
   0.3092300000000000    0.8292430000000000    0.5000000000000000 P
   0.5200120000000000    0.6907700000000000    0.5000000000000000 P
   0.1707570000000000    0.4799880000000000    0.5000000000000000 P
   0.8108930000000000    0.8129260000000000    0.0000000000000000 P
   0.1870740000000000    0.9979670000000000    0.0000000000000000 P
   0.0020330000000000    0.1891070000000000    0.0000000000000000 P
