Gd4 Fe13 Os1
1.0
   4.9517467882734030    0.0000000000000000   11.4739540646407114
   2.3702213429125605    4.3476271794512815   11.4739539751338633
   0.0000000000000000    0.0000000000000000   12.4968571799999992
Gd Fe Os
4 13 1
direct
   0.9476470000000000    0.9476470000000000    0.9476470000000000 Gd
   0.1495060000000000    0.1495060000000000    0.1495060000000000 Gd
   0.0523530000000000    0.0523530000000000    0.0523530000000000 Gd
   0.8504940000000000    0.8504940000000000    0.8504940000000000 Gd
   0.6131900000000000    0.6131900000000000    0.6131900000000000 Fe
   0.3868100000000000    0.3868100000000000    0.3868100000000000 Fe
   0.1051110000000000    0.6094420000000000    0.6094420000000000 Fe
   0.3905580000000000    0.3905580000000000    0.8948890000000000 Fe
   0.6094420000000000    0.6094420000000000    0.1051110000000000 Fe
   0.6094420000000000    0.1051110000000000    0.6094420000000000 Fe
   0.3905580000000000    0.8948890000000000    0.3905580000000000 Fe
   0.5000000000000000    0.0000000000000000    0.5000000000000000 Fe
   0.7204790000000000    0.7204790000000000    0.7204790000000000 Fe
   0.8948890000000000    0.3905580000000000    0.3905580000000000 Fe
   0.0000000000000000    0.5000000000000000    0.5000000000000000 Fe
   0.2795210000000000    0.2795210000000000    0.2795210000000000 Fe
   0.5000000000000000    0.5000000000000000    0.0000000000000000 Fe
   0.5000000000000000    0.5000000000000000    0.5000000000000000 Os
