Gd1 Hf2 Fe8 Co1
1.0
   4.7392077574917568    0.0000000000000000    7.0341867855514737
   2.1485323375273682    4.2242040370882430    7.0341866936725062
   0.0000000000000000    0.0000000000000000    8.4817383300000007
Gd Hf Fe Co
1 2 8 1
direct
   0.9999660000000000    0.9999660000000000    0.9999660000000000 Gd
   0.1430300000000000    0.1430300000000000    0.1430300000000000 Hf
   0.8569730000000000    0.8569730000000000    0.8569730000000000 Hf
   0.4997440000000000    0.4997440000000000    0.4997440000000000 Fe
   0.6668910000000000    0.6668910000000000    0.6668910000000000 Fe
   0.0810720000000000    0.5866870000000000    0.5866870000000000 Fe
   0.5866870000000000    0.5866870000000000    0.0810720000000000 Fe
   0.5866870000000000    0.0810720000000000    0.5866870000000000 Fe
   0.4135590000000000    0.9185680000000001    0.4135590000000000 Fe
   0.9185680000000001    0.4135590000000000    0.4135590000000000 Fe
   0.4135590000000000    0.4135590000000000    0.9185680000000001 Fe
   0.3332650000000000    0.3332650000000000    0.3332650000000000 Co
