Gd3 Lu1 Fe12 Co2
1.0
   4.9254727285530908    0.0000000000000000    1.0297252083961546
   2.3559552252469076    4.3241351326057593    1.0256283650465126
   0.0000000000000000    0.0000000000000000   12.2948391099999998
Gd Lu Fe Co
3 1 12 2
direct
   0.9477290000000000    0.9475470000000000    0.1569930000000000 Gd
   0.0520120000000000    0.0522070000000000    0.8437690000000000 Gd
   0.8501060000000000    0.8509030000000000    0.4488840000000000 Gd
   0.1490850000000000    0.1494600000000000    0.5523709999999999 Lu
   0.7212180000000000    0.7213420000000000    0.8362230000000000 Fe
   0.2784960000000000    0.2788060000000000    0.1642030000000000 Fe
   0.6122470000000000    0.6116720000000000    0.1638340000000000 Fe
   0.3881330000000000    0.3876770000000000    0.8360570000000001 Fe
   0.0000080000000000    0.4996540000000000    0.0007210000000000 Fe
   0.4998390000000000    0.9997030000000000    0.0006190000000000 Fe
   0.4996180000000000    0.4996540000000000    0.0007210000000000 Fe
   0.3892970000000000    0.3889590000000000    0.3294150000000000 Fe
   0.8923310000000000    0.3889590000000000    0.3294150000000000 Fe
   0.3888070000000000    0.8929009999999999    0.3294870000000000 Fe
   0.6106490000000000    0.6110950000000001    0.6694400000000000 Fe
   0.1088170000000000    0.6110950000000001    0.6694400000000000 Fe
   0.5002810000000000    0.5007390000000000    0.4987010000000000 Co
   0.6113290000000000    0.1076300000000000    0.6697109999999999 Co
