Gd2 Fe11 Ni1 P7
1.0
   8.9736911399999997    0.0000000000000000    0.0000000000000005
  -4.4460302954216022    7.7717484496526286    0.0000000000000005
   0.0000000000000000    0.0000000000000000    3.6441499999999998
Gd Fe Ni P
2 11 1 7
direct
   0.9998460000000000    0.9996520000000000    0.0000000000000000 Gd
   0.3345750000000000    0.6682350000000000    0.5000000000000000 Gd
   0.2963540000000000    0.9057269999999999    0.0000000000000000 Fe
   0.6092660000000000    0.7037960000000000    0.0000000000000000 Fe
   0.8192550000000000    0.6055440000000000    0.0000000000000000 Fe
   0.7852570000000000    0.1773550000000000    0.0000000000000000 Fe
   0.3915670000000000    0.2121220000000000    0.0000000000000000 Fe
   0.0509640000000000    0.7679120000000000    0.5000000000000000 Fe
   0.7136530000000000    0.9460010000000000    0.5000000000000000 Fe
   0.2325650000000000    0.2861240000000000    0.5000000000000000 Fe
   0.8901390000000000    0.4321860000000000    0.5000000000000000 Fe
   0.5445140000000001    0.1148280000000000    0.5000000000000000 Fe
   0.5688600000000000    0.4529530000000000    0.5000000000000000 Fe
   0.0983260000000000    0.3950130000000000    0.0000000000000000 Ni
   0.0762870000000000    0.6376550000000000    0.0000000000000000 P
   0.5547090000000000    0.9239930000000000    0.0000000000000000 P
   0.3743610000000000    0.4462580000000000    0.0000000000000000 P
   0.7793600000000001    0.7338820000000000    0.5000000000000000 P
   0.9501680000000000    0.2140780000000000    0.5000000000000000 P
   0.2644780000000000    0.0448590000000000    0.5000000000000000 P
   0.6654930000000000    0.3318240000000000    0.0000000000000000 P
