Gd4 Y2 Co23
1.0
   7.1882933652992422    0.0000000000000000    4.1614971321335608
  -4.7973307021116147    6.7804877927765617   -0.0145722005186244
   0.0000000000000000    0.0000000000000000    8.3059990900000003
Gd Y Co
4 2 23
direct
   0.0005090000000000    0.2866640000000000    0.7128250000000000 Gd
   0.4254910000000000    0.7126990000000000    0.2872080000000000 Gd
   0.0000920000000000    0.2873010000000000    0.2872080000000000 Gd
   0.0005090000000000    0.7133360000000000    0.2861550000000000 Gd
   0.5771849999999999    0.2882530000000000    0.7110680000000000 Y
   0.0006790000000000    0.7117470000000000    0.7110680000000000 Y
   0.6455460000000000    0.3225200000000000    0.0319340000000000 Co
   0.3539220000000000    0.3230160000000000    0.3230610000000000 Co
   0.3544370000000000    0.0313850000000000    0.3225970000000000 Co
   0.6460180000000000    0.3229670000000000    0.3225970000000000 Co
   0.3539220000000000    0.6769830000000000    0.9690940000000000 Co
   0.6455460000000000    0.6774800000000000    0.6769740000000000 Co
   0.6460180000000000    0.9686150000000000    0.6769470000000000 Co
   0.3544370000000000    0.6770330000000000    0.6769470000000000 Co
   0.9999550000000000    0.0000000000000000    0.0000450000000000 Co
   0.2457810000000000    0.1237790000000000    0.6304390000000000 Co
   0.7540400000000000    0.1228990000000000    0.1230610000000000 Co
   0.7531710000000000    0.6307850000000000    0.1243060000000000 Co
   0.2449090000000000    0.1225220000000000    0.1243060000000000 Co
   0.7540400000000000    0.8771010000000000    0.3688600000000000 Co
   0.2457810000000000    0.8762210000000000    0.8779970000000000 Co
   0.2449090000000000    0.3692150000000000    0.8776150000000000 Co
   0.7531710000000000    0.8774780000000000    0.8776150000000000 Co
   0.9999190000000000    0.0006390000000000    0.4993430000000000 Co
   0.5000190000000000    0.5007380000000000    0.4993430000000000 Co
   0.5014360000000000    0.0000000000000000    0.4985640000000000 Co
   0.9999190000000000    0.4992620000000000    0.0007190000000000 Co
   0.5000190000000000    0.9993610000000001    0.0007190000000000 Co
   0.4986180000000000    0.5000000000000000    0.0013820000000000 Co
