Gd1 Lu1 Fe12 P7
1.0
   8.9415600000000008    0.0000000000000000    0.0000000000000005
  -4.4707800023030666    7.7436180042100604    0.0000000000000005
   0.0000000000000000    0.0000000000000000    3.6359349999999999
Gd Lu Fe P
1 1 12 7
direct
   0.3333333333333333    0.6666666666666666    0.0000000000000000 Gd
   0.0000000000000000    0.0000000000000000    0.5000000000000000 Lu
   0.7242830000000000    0.7596950000000000    0.0000000000000000 Fe
   0.2403050000000000    0.9645880000000000    0.0000000000000000 Fe
   0.0354120000000000    0.2757170000000000    0.0000000000000000 Fe
   0.9418730000000000    0.4893420000000000    0.0000000000000000 Fe
   0.5106579999999999    0.4525300000000000    0.0000000000000000 Fe
   0.5474700000000000    0.0581270000000000    0.0000000000000000 Fe
   0.0986770000000000    0.7183810000000000    0.5000000000000000 Fe
   0.2816190000000000    0.3802960000000000    0.5000000000000000 Fe
   0.6197040000000000    0.9013230000000000    0.5000000000000000 Fe
   0.7617460000000000    0.5459650000000000    0.5000000000000000 Fe
   0.4540350000000000    0.2157820000000000    0.5000000000000000 Fe
   0.7842180000000000    0.2382540000000000    0.5000000000000000 Fe
   0.9654190000000000    0.7467030000000000    0.0000000000000000 P
   0.2532970000000000    0.2187160000000000    0.0000000000000000 P
   0.7812840000000000    0.0345810000000000    0.0000000000000000 P
   0.0669950000000000    0.4447630000000000    0.5000000000000000 P
   0.5552370000000000    0.6222299999999999    0.5000000000000000 P
   0.3777700000000000    0.9330050000000000    0.5000000000000000 P
   0.6666666666666666    0.3333333333333333    0.0000000000000000 P
