Gd2 Fe6 Si2 B2
1.0
   5.0963750000000001    0.0000000000000000    0.0000000000000003
  -2.5481869977401450    4.4151029961021040    0.0000000000000003
   0.0000000000000000    0.0000000000000000    6.6325669999999999
Gd Fe Si B
2 6 2 2
direct
   0.9999800000000000    0.0000000000000000    0.0000000000000000 Gd
   0.9999850000000000    0.0000000000000000    0.5000000000000000 Gd
   0.4999850000000000    0.0000000000000000    0.2821050000000000 Fe
   0.4999840000000000    0.5000000000000000    0.2821030000000000 Fe
   0.9999840000000000    0.5000000000000000    0.2821030000000000 Fe
   0.4999850000000000    0.0000000000000000    0.7178949999999999 Fe
   0.4999840000000000    0.5000000000000000    0.7178970000000000 Fe
   0.9999840000000000    0.5000000000000000    0.7178970000000000 Fe
   0.3332550000000000    0.6665480000000000    0.0000000000000000 Si
   0.6666666666666666    0.3334520000000000    0.0000000000000000 Si
   0.3332750000000000    0.6665800000000000    0.5000000000000000 B
   0.6666666666666666    0.3334200000000000    0.5000000000000000 B
