Gd4 V2 Fe18 P12
1.0
   3.6512359999999999    0.0000000000000000    0.0000000000000002
  -0.0000000000000006   10.3313179999999996    0.0000000000000006
   0.0000000000000000    0.0000000000000000   11.8560560000000006
Gd V Fe P
4 2 18 12
direct
   0.7500000000000000    0.4169780000000000    0.2950200000000000 Gd
   0.7500000000000000    0.0830220000000000    0.7950199999999999 Gd
   0.2500000000000000    0.5761420000000000    0.7030790000000000 Gd
   0.2500000000000000    0.9238580000000000    0.2030790000000000 Gd
   0.2500000000000000    0.7019140000000000    0.9895650000000000 V
   0.2500000000000000    0.7980860000000000    0.4895650000000000 V
   0.7500000000000000    0.2965950000000000    0.0116500000000000 Fe
   0.7500000000000000    0.2034050000000000    0.5116500000000000 Fe
   0.2500000000000000    0.3996270000000000    0.4911850000000000 Fe
   0.2500000000000000    0.1003730000000000    0.9911850000000000 Fe
   0.7500000000000000    0.5894260000000000    0.5097050000000000 Fe
   0.7500000000000000    0.9105740000000000    0.0097050000000000 Fe
   0.2500000000000000    0.2230840000000000    0.1755780000000000 Fe
   0.2500000000000000    0.2769160000000000    0.6755780000000000 Fe
   0.7500000000000000    0.7836190000000000    0.8222760000000000 Fe
   0.7500000000000000    0.7163810000000000    0.3222760000000000 Fe
   0.2500000000000000    0.8731650000000000    0.7026480000000001 Fe
   0.2500000000000000    0.6268350000000000    0.2026480000000000 Fe
   0.7500000000000000    0.1228970000000000    0.3003300000000000 Fe
   0.7500000000000000    0.3771030000000000    0.8003300000000000 Fe
   0.2500000000000000    0.4628880000000000    0.9333930000000000 Fe
   0.2500000000000000    0.0371120000000000    0.4333930000000000 Fe
   0.7500000000000000    0.5371460000000000    0.0667750000000000 Fe
   0.7500000000000000    0.9628540000000000    0.5667750000000000 Fe
   0.2500000000000000    0.4235870000000000    0.1132780000000000 P
   0.2500000000000000    0.0764130000000000    0.6132780000000000 P
   0.7500000000000000    0.5756210000000000    0.8847429999999999 P
   0.7500000000000000    0.9243790000000000    0.3847430000000000 P
   0.2500000000000000    0.2667670000000000    0.8694850000000000 P
   0.2500000000000000    0.2332330000000000    0.3694850000000000 P
   0.7500000000000000    0.7385699999999999    0.1284590000000000 P
   0.7500000000000000    0.7614300000000001    0.6284590000000000 P
   0.2500000000000000    0.5901240000000000    0.3969680000000000 P
   0.2500000000000000    0.9098760000000000    0.8969680000000000 P
   0.7500000000000000    0.3930430000000000    0.6058650000000000 P
   0.7500000000000000    0.1069570000000000    0.1058650000000000 P
