Gd2 Lu3 Fe18 Co1 P12
1.0
  11.9016339999999996    0.0000000000000000    0.0000000000000007
  -5.9508169990995423   10.3071169984662987    0.0000000000000007
   0.0000000000000000    0.0000000000000000    3.6732670000000001
Gd Lu Fe Co P
2 3 18 1 12
direct
   0.3333333333333333    0.6666666666666666    0.5000000000000000 Gd
   0.6666666666666666    0.3333333333333333    0.5000000000000000 Gd
   0.1841080000000000    0.0000000000000000    0.0000000000000000 Lu
   0.0000000000000000    0.1841080000000000    0.0000000000000000 Lu
   0.8158920000000000    0.8158920000000000    0.0000000000000000 Lu
   0.1977590000000000    0.3787080000000000    0.5000000000000000 Fe
   0.6212920000000000    0.8190510000000000    0.5000000000000000 Fe
   0.1809490000000000    0.8022410000000000    0.5000000000000000 Fe
   0.8190510000000000    0.6212920000000000    0.5000000000000000 Fe
   0.8022410000000000    0.1809490000000000    0.5000000000000000 Fe
   0.3787080000000000    0.1977590000000000    0.5000000000000000 Fe
   0.5563850000000000    0.0000000000000000    0.5000000000000000 Fe
   0.0000000000000000    0.5563850000000000    0.5000000000000000 Fe
   0.4436150000000000    0.4436150000000000    0.5000000000000000 Fe
   0.1223200000000000    0.4808820000000000    0.0000000000000000 Fe
   0.5191180000000000    0.6414390000000000    0.0000000000000000 Fe
   0.3585610000000000    0.8776800000000000    0.0000000000000000 Fe
   0.6414390000000000    0.5191180000000000    0.0000000000000000 Fe
   0.8776800000000000    0.3585610000000000    0.0000000000000000 Fe
   0.4808820000000000    0.1223200000000000    0.0000000000000000 Fe
   0.7160580000000000    0.0000000000000000    0.0000000000000000 Fe
   0.0000000000000000    0.7160580000000000    0.0000000000000000 Fe
   0.2839420000000000    0.2839420000000000    0.0000000000000000 Fe
   0.0000000000000000    0.0000000000000000    0.5000000000000000 Co
   0.3696100000000000    0.0000000000000000    0.5000000000000000 P
   0.0000000000000000    0.3696100000000000    0.5000000000000000 P
   0.6303900000000000    0.6303900000000000    0.5000000000000000 P
   0.3147060000000000    0.4787990000000000    0.0000000000000000 P
   0.5212010000000000    0.8359060000000000    0.0000000000000000 P
   0.1640940000000000    0.6852940000000000    0.0000000000000000 P
   0.8359060000000000    0.5212010000000000    0.0000000000000000 P
   0.6852940000000000    0.1640940000000000    0.0000000000000000 P
   0.4787990000000000    0.3147060000000000    0.0000000000000000 P
   0.8170410000000000    0.0000000000000000    0.5000000000000000 P
   0.0000000000000000    0.8170410000000000    0.5000000000000000 P
   0.1829590000000000    0.1829590000000000    0.5000000000000000 P
