Gd6 Al6 Fe17
1.0
   7.3475116321258591    0.0000000000000000    4.2336327412460788
   2.4349979109743058    6.9275773982322590    4.2666938122671265
   0.0000000000000000    0.0000000000000000    8.4926575199999998
Gd Al Fe
6 6 17
direct
   0.6983930000000000    0.7054210000000000    0.2994920000000000 Gd
   0.2966940000000000    0.7054210000000000    0.2994920000000000 Gd
   0.7018000000000000    0.2982000000000000    0.2982000000000000 Gd
   0.2966940000000000    0.2994920000000000    0.7054210000000000 Gd
   0.6983930000000000    0.2994920000000000    0.7054210000000000 Gd
   0.2989430000000000    0.7010570000000000    0.7010570000000000 Gd
   0.8782710000000000    0.8830570000000000    0.3604010000000000 Al
   0.8782710000000000    0.3604010000000000    0.8830570000000000 Al
   0.3653140000000000    0.8796740000000000    0.8796740000000000 Al
   0.8753379999999999    0.8796740000000000    0.8796740000000000 Al
   0.1221430000000000    0.1219830000000000    0.6337310000000000 Al
   0.1221430000000000    0.6337310000000000    0.1219830000000000 Al
   0.9996960000000000    0.0003040000000000    0.0003040000000000 Fe
   0.0025750000000000    0.0028660000000000    0.4937730000000000 Fe
   0.5007860000000000    0.0028660000000000    0.4937730000000000 Fe
   0.0001530000000000    0.4998470000000000    0.4998470000000000 Fe
   0.5007860000000000    0.4937730000000000    0.0028660000000000 Fe
   0.0025750000000000    0.4937730000000000    0.0028660000000000 Fe
   0.4968040000000000    0.0031960000000000    0.0031960000000000 Fe
   0.6389210000000000    0.1205550000000000    0.1205550000000000 Fe
   0.1199690000000000    0.1205550000000000    0.1205550000000000 Fe
   0.6770340000000000    0.6740470000000000    0.9718850000000000 Fe
   0.6770340000000000    0.9718850000000000    0.6740470000000000 Fe
   0.9697700000000000    0.6760540000000000    0.6760540000000000 Fe
   0.6781230000000000    0.6760540000000000    0.6760540000000000 Fe
   0.3253610000000000    0.3243910000000000    0.0248870000000000 Fe
   0.3253610000000000    0.0248870000000000    0.3243910000000000 Fe
   0.0285750000000000    0.3236740000000000    0.3236740000000000 Fe
   0.3240770000000000    0.3236740000000000    0.3236740000000000 Fe
