Gd6 Fe18
1.0
   5.1066409999999998    0.0000000000000000    0.0000000000000003
  -2.5533199991244429    4.4224789985387902    0.0000000000000003
   0.0000000000000000    0.0000000000000000   16.2024259999999991
Gd Fe
6 18
direct
   0.6666666666666666    0.3333333333333333    0.2500000000000000 Gd
   0.3333333333333333    0.6666666666666666    0.5376680000000000 Gd
   0.6666666666666666    0.3333333333333333    0.0373800000000000 Gd
   0.6666666666666666    0.3333333333333333    0.4626200000000000 Gd
   0.3333333333333333    0.6666666666666666    0.9623320000000000 Gd
   0.3333333333333333    0.6666666666666666    0.7500000000000000 Gd
   0.1666190000000000    0.3332360000000000    0.1276020000000000 Fe
   0.8334110000000000    0.6668240000000000    0.6278270000000000 Fe
   0.6667640000000000    0.8333810000000000    0.1276020000000000 Fe
   0.1666190000000000    0.8333810000000000    0.1276020000000000 Fe
   0.8334110000000000    0.1665890000000000    0.6278270000000000 Fe
   0.3331760000000000    0.1665890000000000    0.6278270000000000 Fe
   0.8334110000000000    0.6668240000000000    0.8721730000000000 Fe
   0.8334110000000000    0.1665890000000000    0.8721730000000000 Fe
   0.3331760000000000    0.1665890000000000    0.8721730000000000 Fe
   0.6667640000000000    0.8333810000000000    0.3723980000000000 Fe
   0.1666190000000000    0.8333810000000000    0.3723980000000000 Fe
   0.1666190000000000    0.3332360000000000    0.3723980000000000 Fe
   0.0000000000000000    0.0000000000000000    0.2500000000000000 Fe
   0.0000000000000000    0.0000000000000000    0.7500000000000000 Fe
   0.3333333333333333    0.6666666666666666    0.2500000000000000 Fe
   0.6666666666666666    0.3333333333333333    0.7500000000000000 Fe
   0.0000000000000000    0.0000000000000000    0.9999080000000000 Fe
   0.0000000000000000    0.0000000000000000    0.5000920000000000 Fe
