Gd1 Y2 Fe9
1.0
   4.8821147121534336    0.0000000000000000    7.1364115470480618
   2.2074881720326642    4.3545420224837210    7.1364114260888556
   0.0000000000000000    0.0000000000000000    8.6465840099999998
Gd Y Fe
1 2 9
direct
   0.8581040000000000    0.8581040000000000    0.8581040000000000 Gd
   0.0000230000000000    0.0000230000000000    0.0000230000000000 Y
   0.1418710000000000    0.1418710000000000    0.1418710000000000 Y
   0.4999950000000000    0.4999950000000000    0.4999950000000000 Fe
   0.3326900000000000    0.3326900000000000    0.3326900000000000 Fe
   0.6673460000000000    0.6673460000000000    0.6673460000000000 Fe
   0.0824690000000000    0.5805060000000000    0.5805060000000000 Fe
   0.5805060000000000    0.5805060000000000    0.0824690000000000 Fe
   0.5805060000000000    0.0824690000000000    0.5805060000000000 Fe
   0.4195340000000000    0.9174210000000000    0.4195340000000000 Fe
   0.9174210000000000    0.4195340000000000    0.4195340000000000 Fe
   0.4195340000000000    0.4195340000000000    0.9174210000000000 Fe
