Gd2 Be1 Al2 Fe14 C3
1.0
   6.4032422039781727    0.0000000000000000    0.7938068317325957
   0.6272723791958509    6.3419578322140735    0.7098375758657210
   0.0000000000000000    0.0000000000000000    6.4522584199999997
Gd Be Al Fe C
2 1 2 14 3
direct
   0.6557750000000000    0.6552680000000000    0.6557750000000000 Gd
   0.3442250000000000    0.3447320000000000    0.3442250000000000 Gd
   0.0000000000000000    0.5000000000000000    0.0000000000000000 Be
   0.0000000000000000    0.0000000000000000    0.5000000000000000 Al
   0.5000000000000000    0.0000000000000000    0.0000000000000000 Al
   0.7222110000000000    0.2900130000000000    0.9998500000000000 Fe
   0.0001500000000000    0.7099870000000000    0.2777890000000000 Fe
   0.2838700000000000    0.0000000000000000    0.7161300000000000 Fe
   0.9998500000000000    0.2900130000000000    0.7222110000000000 Fe
   0.7161300000000000    0.0000000000000000    0.2838700000000000 Fe
   0.2777890000000000    0.7099870000000000    0.0001500000000000 Fe
   0.3445170000000000    0.8496210000000000    0.3445170000000000 Fe
   0.3351350000000000    0.3477600000000000    0.8577420000000000 Fe
   0.8577420000000000    0.3477600000000000    0.3351350000000000 Fe
   0.6554830000000000    0.1503790000000000    0.6554830000000000 Fe
   0.6648650000000000    0.6522400000000000    0.1422580000000000 Fe
   0.1422580000000000    0.6522400000000000    0.6648650000000000 Fe
   0.9077620000000000    0.8986750000000000    0.9077620000000000 Fe
   0.0922380000000000    0.1013250000000000    0.0922380000000000 Fe
   0.5000000000000000    0.5000000000000000    0.0000000000000000 C
   0.0000000000000000    0.5000000000000000    0.5000000000000000 C
   0.5000000000000000    0.0000000000000000    0.5000000000000000 C
