Gd3 Fe8 Ru1
1.0
   4.8535504783039887    0.0000000000000000    1.4756811938356438
   2.2024403891386251    4.3250685632849368    1.4756811378636865
   0.0000000000000000    0.0000000000000000    8.7195605199999999
Gd Fe Ru
3 8 1
direct
   0.0000000000000000    0.0000000000000000    0.0000000000000000 Gd
   0.1419450000000000    0.1419450000000000    0.5741620000000000 Gd
   0.8580550000000000    0.8580550000000000    0.4258380000000000 Gd
   0.0771720000000000    0.5823300000000000    0.7581690000000000 Fe
   0.5823300000000000    0.5823300000000000    0.7581690000000000 Fe
   0.5823300000000000    0.0771720000000000    0.7581690000000000 Fe
   0.9228280000000000    0.4176700000000000    0.2418310000000000 Fe
   0.4176700000000000    0.4176700000000000    0.2418310000000000 Fe
   0.4176700000000000    0.9228280000000000    0.2418310000000000 Fe
   0.3328720000000000    0.3328720000000000    0.0013850000000000 Fe
   0.6671280000000001    0.6671280000000001    0.9986150000000000 Fe
   0.5000000000000000    0.5000000000000000    0.5000000000000000 Ru
