Gd1 Sc2 Fe8 Co1
1.0
   4.7770784717726977    0.0000000000000000    6.9768487153514771
   2.1596695536564670    4.2610219603860102    6.9768486688036004
   0.0000000000000000    0.0000000000000000    8.4555848000000005
Gd Sc Fe Co
1 2 8 1
direct
   0.0000000000000000    0.0000000000000000    0.0000000000000000 Gd
   0.1433740000000000    0.1433740000000000    0.1433740000000000 Sc
   0.8566260000000000    0.8566260000000000    0.8566260000000000 Sc
   0.3327600000000000    0.3327600000000000    0.3327600000000000 Fe
   0.6672400000000001    0.6672400000000001    0.6672400000000001 Fe
   0.0827100000000000    0.5853230000000000    0.5853230000000000 Fe
   0.5853230000000000    0.5853230000000000    0.0827100000000000 Fe
   0.5853230000000000    0.0827100000000000    0.5853230000000000 Fe
   0.4146770000000000    0.9172900000000000    0.4146770000000000 Fe
   0.9172900000000000    0.4146770000000000    0.4146770000000000 Fe
   0.4146770000000000    0.4146770000000000    0.9172900000000000 Fe
   0.5000000000000000    0.5000000000000000    0.5000000000000000 Co
