Gd1 Co10 Mo2
1.0
   4.3765898227712157    0.0000000000000000   -1.7130939057563144
   2.1858330141033924    6.0036406089606444   -0.8628365788344292
   0.0000000000000000    0.0000000000000000    6.4471740700000000
Gd Co Mo
1 10 2
direct
   0.0000000000000000    0.0000000000000000    0.0000000000000000 Gd
   0.7123969999999999    0.7876030000000001    0.2123970000000000 Co
   0.2876030000000000    0.2123970000000000    0.7876030000000001 Co
   0.5000000000000000    0.7796790000000000    0.7796790000000000 Co
   0.5000000000000000    0.2203210000000000    0.2203210000000000 Co
   0.5000000000000000    0.0000000000000000    0.5000000000000000 Co
   0.0000000000000000    0.0000000000000000    0.5000000000000000 Co
   0.5000000000000000    0.5000000000000000    0.0000000000000000 Co
   0.0000000000000000    0.5000000000000000    0.0000000000000000 Co
   0.6408180000000000    0.3591820000000000    0.6408180000000000 Co
   0.3591820000000000    0.6408180000000000    0.3591820000000000 Co
   0.0000000000000000    0.3581340000000000    0.3581340000000000 Mo
   0.0000000000000000    0.6418660000000000    0.6418660000000000 Mo
