Gd6 Fe7 Co16
1.0
   7.2390139979828731    0.0000000000000000    4.1794469987913505
   2.4130049993997202    6.8250080001818256    4.1794470001349726
   0.0000000000000000    0.0000000000000000    8.3588939999999994
Gd Fe Co
6 7 16
direct
   0.7136630000000000    0.7136630000000000    0.2863370000000000 Gd
   0.2863370000000000    0.7136630000000000    0.2863370000000000 Gd
   0.7136630000000000    0.2863370000000000    0.2863370000000000 Gd
   0.2863370000000000    0.2863370000000000    0.7136630000000000 Gd
   0.7136630000000000    0.2863370000000000    0.7136630000000000 Gd
   0.2863370000000000    0.7136630000000000    0.7136630000000000 Gd
   0.0000000000000000    0.0000000000000000    0.0000000000000000 Fe
   0.0000000000000000    0.0000000000000000    0.5000000000000000 Fe
   0.5000000000000000    0.0000000000000000    0.5000000000000000 Fe
   0.0000000000000000    0.5000000000000000    0.5000000000000000 Fe
   0.5000000000000000    0.5000000000000000    0.0000000000000000 Fe
   0.0000000000000000    0.5000000000000000    0.0000000000000000 Fe
   0.5000000000000000    0.0000000000000000    0.0000000000000000 Fe
   0.8770220000000000    0.8770220000000000    0.3689320000000000 Co
   0.8770220000000000    0.3689320000000000    0.8770220000000000 Co
   0.3689320000000000    0.8770220000000000    0.8770220000000000 Co
   0.8770220000000000    0.8770220000000000    0.8770220000000000 Co
   0.1229780000000000    0.1229780000000000    0.6310680000000000 Co
   0.1229780000000000    0.6310680000000000    0.1229780000000000 Co
   0.6310680000000000    0.1229780000000000    0.1229780000000000 Co
   0.1229780000000000    0.1229780000000000    0.1229780000000000 Co
   0.6764630000000000    0.6764630000000000    0.9706100000000000 Co
   0.6764630000000000    0.9706100000000000    0.6764630000000000 Co
   0.9706100000000000    0.6764630000000000    0.6764630000000000 Co
   0.6764630000000000    0.6764630000000000    0.6764630000000000 Co
   0.3235370000000000    0.3235370000000000    0.0293900000000000 Co
   0.3235370000000000    0.0293900000000000    0.3235370000000000 Co
   0.0293900000000000    0.3235370000000000    0.3235370000000000 Co
   0.3235370000000000    0.3235370000000000    0.3235370000000000 Co
