Gd4 Hf2 Co32
1.0
   8.1881287842760084    0.0000000000000000   -0.0022006481614963
   0.0011185886236114    7.2088415189387636   -4.1644137618208115
   0.0000000000000000    0.0000000000000000    8.3252471200000002
Gd Hf Co
4 2 32
direct
   0.2656990000000000    0.6668420000000000    0.3331580000000000 Gd
   0.7343010000000000    0.3331580000000000    0.6668420000000000 Gd
   0.7479970000000000    0.0000460000000000    0.9999540000000000 Gd
   0.2520030000000000    0.9999540000000000    0.0000460000000000 Gd
   0.1132000000000000    0.3332980000000000    0.6666666666666666 Hf
   0.8868000000000000    0.6666666666666666    0.3332980000000000 Hf
   0.7483910000000000    0.6731780000000001    0.0377210000000000 Co
   0.7484650000000000    0.3645860000000000    0.3269130000000000 Co
   0.7484690000000001    0.9622520000000000    0.6353960000000000 Co
   0.7484690000000001    0.3646040000000000    0.0377480000000000 Co
   0.7483910000000000    0.9622790000000000    0.3268220000000000 Co
   0.7484650000000000    0.6730870000000000    0.6354140000000000 Co
   0.2516090000000000    0.3268220000000000    0.9622790000000000 Co
   0.2515350000000000    0.6354140000000000    0.6730870000000000 Co
   0.2515310000000000    0.0377480000000000    0.3646040000000000 Co
   0.2515310000000000    0.6353960000000000    0.9622520000000000 Co
   0.2516090000000000    0.0377210000000000    0.6731780000000001 Co
   0.2515350000000000    0.3269130000000000    0.3645860000000000 Co
   0.5000000000000000    0.5000000000000000    0.0000000000000000 Co
   0.5000000000000000    0.5000000000000000    0.5000000000000000 Co
   0.5000000000000000    0.0000000000000000    0.5000000000000000 Co
   0.0000000000000000    0.5000000000000000    0.0000000000000000 Co
   0.0000000000000000    0.5000000000000000    0.5000000000000000 Co
   0.0000000000000000    0.0000000000000000    0.5000000000000000 Co
   0.4818980000000000    0.8339980000000000    0.6679300000000000 Co
   0.4817060000000000    0.8339530000000001    0.1660470000000000 Co
   0.4818980000000000    0.3320700000000000    0.1660020000000000 Co
   0.5181020000000000    0.1660020000000000    0.3320700000000000 Co
   0.5182940000000000    0.1660470000000000    0.8339530000000001 Co
   0.5181020000000000    0.6679300000000000    0.8339980000000000 Co
   0.9740950000000000    0.1613790000000000    0.3227880000000000 Co
   0.9741130000000000    0.1614240000000000    0.8385760000000000 Co
   0.9740950000000000    0.6772120000000000    0.8386209999999999 Co
   0.0259050000000000    0.8386209999999999    0.6772120000000000 Co
   0.0258870000000000    0.8385760000000000    0.1614240000000000 Co
   0.0259050000000000    0.3227880000000000    0.1613790000000000 Co
   0.5923370000000000    0.6666666666666666    0.3332800000000000 Co
   0.4076630000000000    0.3332800000000000    0.6666666666666666 Co
