Gd2 Co18 Si8
1.0
   6.7312836453834182    0.0000000000000000   -4.1447320476721652
  -2.1005793210026087    6.3951345592397422   -4.1447320476721652
   0.0000000000000000    0.0000000000000000    7.9049973600000003
Gd Co Si
2 18 8
direct
   0.7500000000000000    0.7500000000000000    0.0000000000000000 Gd
   0.2500000000000000    0.2500000000000000    0.0000000000000000 Gd
   0.0699510000000000    0.1994530000000000    0.2694030000000000 Co
   0.9300490000000000    0.8005470000000000    0.7305970000000001 Co
   0.5699510000000000    0.3005470000000000    0.8704980000000000 Co
   0.4300490000000000    0.6994530000000000    0.1295020000000000 Co
   0.8005470000000000    0.0699510000000000    0.8704980000000000 Co
   0.1994530000000000    0.9300490000000000    0.1295020000000000 Co
   0.6994530000000000    0.5699510000000000    0.2694030000000000 Co
   0.3005470000000000    0.4300490000000000    0.7305970000000001 Co
   0.4484110000000000    0.9484110000000000    0.7579360000000001 Co
   0.1904740000000000    0.6904740000000000    0.2420640000000000 Co
   0.9484110000000000    0.1904740000000000    0.5000000000000000 Co
   0.6904740000000000    0.4484110000000000    0.5000000000000000 Co
   0.5515890000000000    0.0515890000000000    0.2420640000000000 Co
   0.8095260000000000    0.3095260000000000    0.7579360000000001 Co
   0.0515890000000000    0.8095260000000000    0.5000000000000000 Co
   0.3095260000000000    0.5515890000000000    0.5000000000000000 Co
   0.0000000000000000    0.5000000000000000    0.5000000000000000 Co
   0.5000000000000000    0.0000000000000000    0.5000000000000000 Co
   0.0475330000000000    0.5475330000000000    0.8388260000000000 Si
   0.7087059999999999    0.2087060000000000    0.1611740000000000 Si
   0.5475330000000000    0.7087059999999999    0.5000000000000000 Si
   0.2087060000000000    0.0475330000000000    0.5000000000000000 Si
   0.9524670000000000    0.4524670000000000    0.1611740000000000 Si
   0.2912940000000000    0.7912940000000001    0.8388260000000000 Si
   0.4524670000000000    0.2912940000000000    0.5000000000000000 Si
   0.7912940000000001    0.9524670000000000    0.5000000000000000 Si
