Gd2 Fe1 Co16
1.0
   6.2304661277354514    0.0000000000000000    0.7568125164314153
   0.6704452630045009    6.1942892524364330    0.7568122735475501
   0.0000000000000000    0.0000000000000000    6.2762631600000001
Gd Fe Co
2 1 16
direct
   0.6559310000000000    0.6559310000000000    0.6559310000000000 Gd
   0.3459590000000000    0.3459600000000000    0.3459600000000000 Gd
   0.0960430000000000    0.0960430000000000    0.0960430000000000 Fe
   0.3466030000000000    0.3466030000000000    0.8496850000000000 Co
   0.8496850000000000    0.3466030000000000    0.3466030000000000 Co
   0.3466030000000000    0.8496850000000000    0.3466030000000000 Co
   0.6544570000000000    0.6544570000000000    0.1509310000000000 Co
   0.1509310000000000    0.6544570000000000    0.6544570000000000 Co
   0.6544570000000000    0.1509310000000000    0.6544570000000000 Co
   0.7105430000000000    0.2890900000000000    0.9992040000000000 Co
   0.9992040000000000    0.7105430000000000    0.2890900000000000 Co
   0.2890900000000000    0.9992040000000000    0.7105430000000000 Co
   0.9992040000000000    0.2890900000000000    0.7105430000000000 Co
   0.7105430000000000    0.9992040000000000    0.2890900000000000 Co
   0.2890900000000000    0.7105430000000000    0.9992040000000000 Co
   0.9988690000000000    0.9988690000000000    0.5017590000000000 Co
   0.5017590000000000    0.9988690000000000    0.9988690000000000 Co
   0.9988690000000000    0.5017590000000000    0.9988690000000000 Co
   0.9021570000000000    0.9021570000000000    0.9021570000000000 Co
