Gd3 Y1 Fe6 Os2
1.0
   5.2150757937893006    0.0000000000000000   -0.0539690493366324
  -2.6366093633937306    4.2273404199667572    1.5420202728589114
   0.0000000000000000    0.0000000000000000    8.9826119799999997
Gd Y Fe Os
3 1 6 2
direct
   0.3754370000000000    0.7497130000000000    0.8748500000000000 Gd
   0.9996530000000000    0.0005870000000000    0.9997590000000000 Gd
   0.4993580000000000    0.0001590000000000    0.5004840000000000 Gd
   0.8754230000000000    0.7496150000000000    0.3749620000000000 Y
   0.4377280000000000    0.8755210000000000    0.1865710000000000 Fe
   0.9374250000000000    0.8747290000000000    0.6883680000000000 Fe
   0.1873640000000000    0.3747100000000000    0.4379260000000000 Fe
   0.6876200000000000    0.3751620000000000    0.9372180000000000 Fe
   0.9379080000000000    0.3757000000000000    0.1865710000000000 Fe
   0.4369030000000000    0.3742060000000000    0.6883680000000000 Fe
   0.4376510000000000    0.3757590000000000    0.1865910000000000 Os
   0.9375289999999999    0.3741390000000000    0.6883320000000001 Os
