Gd1 Lu1 Co4
1.0
   4.3483890003570957    0.0000000000000000    2.5105430003078220
   1.4494630005498084    4.0997000004600457    2.5105430000420998
   0.0000000000000000    0.0000000000000000    5.0210869999999996
Gd Lu Co
1 1 4
direct
   0.2500000000000000    0.2500000000000000    0.2500000000000000 Gd
   0.0000000000000000    0.0000000000000000    0.0000000000000000 Lu
   0.6250620000000000    0.6250620000000000    0.1248140000000000 Co
   0.6250620000000000    0.1248140000000000    0.6250620000000000 Co
   0.1248140000000000    0.6250620000000000    0.6250620000000000 Co
   0.6250620000000000    0.6250620000000000    0.6250620000000000 Co
