Gd1 Lu5 Fe18 P12
1.0
   3.6601230000000000    0.0000000000000000    0.0000000000000002
  -0.0000000000000006   10.4308440000000004    0.0000000000000006
   0.0000000000000000    0.0000000000000000   12.1471839999999993
Gd Lu Fe P
1 5 18 12
direct
   0.0000000000000000    0.5000000000000000    0.5262580000000000 Gd
   0.5000000000000000    0.0000000000000000    0.4736900000000000 Lu
   0.5000000000000000    0.8207070000000000    0.2074960000000000 Lu
   0.5000000000000000    0.1792930000000000    0.2074960000000000 Lu
   0.0000000000000000    0.6793640000000000    0.7925800000000000 Lu
   0.0000000000000000    0.3206360000000000    0.7925800000000000 Lu
   0.5000000000000000    0.5000000000000000    0.1540790000000000 Fe
   0.0000000000000000    0.0000000000000000    0.8458940000000000 Fe
   0.5000000000000000    0.5000000000000000    0.6995170000000001 Fe
   0.0000000000000000    0.0000000000000000    0.3010290000000000 Fe
   0.0000000000000000    0.5000000000000000    0.9898550000000000 Fe
   0.5000000000000000    0.0000000000000000    0.0101730000000000 Fe
   0.5000000000000000    0.3276080000000000    0.9961940000000000 Fe
   0.5000000000000000    0.6723920000000000    0.9961940000000000 Fe
   0.0000000000000000    0.1723860000000000    0.0038130000000000 Fe
   0.0000000000000000    0.8276140000000000    0.0038130000000000 Fe
   0.5000000000000000    0.2993730000000000    0.4304990000000000 Fe
   0.5000000000000000    0.7006270000000000    0.4304990000000000 Fe
   0.0000000000000000    0.2001090000000000    0.5693210000000000 Fe
   0.0000000000000000    0.7998910000000000    0.5693210000000000 Fe
   0.5000000000000000    0.8818580000000000    0.7076630000000000 Fe
   0.5000000000000000    0.1181420000000000    0.7076630000000000 Fe
   0.0000000000000000    0.6182810000000000    0.2921990000000000 Fe
   0.0000000000000000    0.3817190000000000    0.2921990000000000 Fe
   0.5000000000000000    0.5000000000000000    0.8822320000000000 P
   0.0000000000000000    0.0000000000000000    0.1180050000000000 P
   0.5000000000000000    0.5000000000000000    0.3413790000000000 P
   0.0000000000000000    0.0000000000000000    0.6582420000000000 P
   0.5000000000000000    0.3072570000000000    0.6150000000000000 P
   0.5000000000000000    0.6927430000000000    0.6150000000000000 P
   0.0000000000000000    0.1923770000000000    0.3850920000000000 P
   0.0000000000000000    0.8076230000000000    0.3850920000000000 P
   0.5000000000000000    0.8508570000000000    0.8866150000000000 P
   0.5000000000000000    0.1491430000000000    0.8866150000000000 P
   0.0000000000000000    0.6491730000000000    0.1133520000000000 P
   0.0000000000000000    0.3508270000000000    0.1133520000000000 P
