Gd4 Cr2 Fe18 P12
1.0
   3.6536420000000001    0.0000000000000000    0.0000000000000002
  -0.0000000000000006   10.2974870000000003    0.0000000000000006
   0.0000000000000000    0.0000000000000000   11.8399800000000006
Gd Cr Fe P
4 2 18 12
direct
   0.2500000000000000    0.5809760000000000    0.7043600000000000 Gd
   0.2500000000000000    0.9190240000000000    0.2043600000000000 Gd
   0.7500000000000000    0.4199700000000000    0.2954660000000000 Gd
   0.7500000000000000    0.0800300000000000    0.7954660000000000 Gd
   0.2500000000000000    0.7029680000000000    0.9897400000000000 Cr
   0.2500000000000000    0.7970320000000000    0.4897400000000000 Cr
   0.7500000000000000    0.2924820000000000    0.0114500000000000 Fe
   0.7500000000000000    0.2075180000000000    0.5114500000000000 Fe
   0.2500000000000000    0.4046130000000000    0.4898870000000000 Fe
   0.2500000000000000    0.0953880000000000    0.9898870000000000 Fe
   0.7500000000000000    0.5946050000000001    0.5101210000000000 Fe
   0.7500000000000000    0.9053949999999999    0.0101210000000000 Fe
   0.2500000000000000    0.2197210000000000    0.1759830000000000 Fe
   0.2500000000000000    0.2802790000000000    0.6759830000000000 Fe
   0.7500000000000000    0.7816650000000001    0.8245640000000000 Fe
   0.7500000000000000    0.7183349999999999    0.3245640000000000 Fe
   0.2500000000000000    0.8755650000000000    0.7016390000000000 Fe
   0.2500000000000000    0.6244350000000000    0.2016390000000000 Fe
   0.7500000000000000    0.1249200000000000    0.2991140000000000 Fe
   0.7500000000000000    0.3750800000000000    0.7991140000000000 Fe
   0.2500000000000000    0.4615150000000000    0.9323740000000000 Fe
   0.2500000000000000    0.0384850000000000    0.4323740000000000 Fe
   0.7500000000000000    0.5340480000000000    0.0663400000000000 Fe
   0.7500000000000000    0.9659520000000000    0.5663400000000000 Fe
   0.2500000000000000    0.4228730000000000    0.1134410000000000 P
   0.2500000000000000    0.0771270000000000    0.6134410000000000 P
   0.7500000000000000    0.5774340000000000    0.8861620000000000 P
   0.7500000000000000    0.9225660000000000    0.3861620000000000 P
   0.2500000000000000    0.2641590000000000    0.8706300000000000 P
   0.2500000000000000    0.2358410000000000    0.3706300000000000 P
   0.7500000000000000    0.7333380000000000    0.1309950000000000 P
   0.7500000000000000    0.7666620000000000    0.6309950000000000 P
   0.2500000000000000    0.5972560000000000    0.3938220000000000 P
   0.2500000000000000    0.9027440000000000    0.8938220000000000 P
   0.7500000000000000    0.3988010000000000    0.6039120000000000 P
   0.7500000000000000    0.1011990000000000    0.1039120000000000 P
