Gd1 Lu1 Co17
1.0
   6.1923386618857803    0.0000000000000000   -0.7604072389632043
   0.6727435034963797    6.1556868581514639   -0.7604076163168183
   0.0000000000000000    0.0000000000000000    6.2388514400000004
Gd Lu Co
1 1 17
direct
   0.6555760000000000    0.6555760000000000    0.3444240000000000 Gd
   0.3443650000000000    0.3443650000000000    0.6556340000000001 Lu
   0.4999130000000000    0.0001580000000000    0.9998420000000000 Co
   0.7088470000000000    0.2909390000000000    0.9997280000000000 Co
   0.0001580000000000    0.4999130000000000    0.9998420000000000 Co
   0.2909390000000000    0.7088470000000000    0.9997280000000000 Co
   0.9035180000000000    0.9035180000000000    0.0964810000000000 Co
   0.3475240000000000    0.3475240000000000    0.1505240000000000 Co
   0.2909380000000000    0.0002720000000000    0.2911530000000000 Co
   0.0002720000000000    0.2909380000000000    0.2911530000000000 Co
   0.6521300000000000    0.1507390000000000    0.3478690000000000 Co
   0.1507390000000000    0.6521300000000000    0.3478690000000000 Co
   0.0001580000000000    0.0001580000000000    0.5000840000000000 Co
   0.8494770000000000    0.3475240000000000    0.6524759999999999 Co
   0.3475240000000000    0.8494770000000000    0.6524759999999999 Co
   0.7088470000000000    0.0002720000000000    0.7090620000000000 Co
   0.0002720000000000    0.7088470000000000    0.7090620000000000 Co
   0.6521300000000000    0.6521300000000000    0.8492590000000000 Co
   0.0966730000000000    0.0966730000000000    0.9033260000000000 Co
