Gd2 Fe11 P7 Os1
1.0
   8.9429006700000002    0.0000000000000000    0.0000000000000005
  -4.5307727111227010    7.7657299413777787    0.0000000000000006
   0.0000000000000000    0.0000000000000000    3.6729370000000001
Gd Fe P Os
2 11 7 1
direct
   0.3335330000000000    0.6658320000000000    0.0000000000000000 Gd
   0.6652770000000000    0.3310240000000000    0.4999990000000000 Gd
   0.4270750000000000    0.0574580000000000    0.0000000000000000 Fe
   0.1537120000000000    0.2751810000000000    0.0000000000000000 Fe
   0.9432140000000000    0.3684620000000000    0.0000000000000000 Fe
   0.6318570000000000    0.5755650000000000    0.0000000000000000 Fe
   0.1162750000000000    0.8421090000000000    0.0000000000000000 Fe
   0.7252000000000000    0.8812080000000000    0.0000000000000000 Fe
   0.9049980000000000    0.1213490000000000    0.4999990000000000 Fe
   0.3860530000000000    0.4365490000000000    0.4999990000000000 Fe
   0.0476280000000000    0.6143870000000000    0.4999990000000000 Fe
   0.8820380000000000    0.7856570000000000    0.4999990000000000 Fe
   0.5677930000000000    0.9505930000000000    0.4999990000000000 Fe
   0.9977370000000000    0.9985870000000000    0.0000000000000000 P
   0.7002570000000000    0.1123020000000000    0.0000000000000000 P
   0.4144340000000000    0.3033430000000000    0.0000000000000000 P
   0.8867980000000000    0.5855790000000000    0.0000000000000000 P
   0.1125250000000000    0.4041250000000000    0.4999990000000000 P
   0.5990180000000001    0.7119640000000000    0.4999990000000000 P
   0.2905290000000000    0.8826700000000000    0.4999990000000000 P
   0.2140460000000000    0.0960580000000000    0.4999990000000000 Os
