Gd3 Fe8 Co1
1.0
   4.8843073777614681    0.0000000000000000    7.1434102618754070
   2.2086851813819810    4.3563949498684957    7.1434112327083561
   0.0000000000000000    0.0000000000000000    8.6535983499999993
Gd Fe Co
3 8 1
direct
   0.1421170000000000    0.1421170000000000    0.1421170000000000 Gd
   0.9998320000000001    0.9998320000000001    0.9998320000000001 Gd
   0.8581780000000000    0.8581780000000000    0.8581780000000000 Gd
   0.4184330000000000    0.4184330000000000    0.9175850000000000 Fe
   0.9175850000000000    0.4184330000000000    0.4184330000000000 Fe
   0.5815860000000000    0.0822240000000000    0.5815860000000000 Fe
   0.5815860000000000    0.5815860000000000    0.0822240000000000 Fe
   0.4184330000000000    0.9175850000000000    0.4184330000000000 Fe
   0.0822240000000000    0.5815860000000000    0.5815860000000000 Fe
   0.3327160000000000    0.3327160000000000    0.3327160000000000 Fe
   0.6672600000000000    0.6672600000000000    0.6672600000000000 Fe
   0.5000500000000000    0.5000500000000000    0.5000500000000000 Co
