Gd1 Zr2 Fe8 Si1
1.0
   4.7511734624893815    0.0000000000000000    7.0298709982372749
   2.1257803758324223    4.2490844950980566    7.0298710391690244
   0.0000000000000000    0.0000000000000000    8.4567303799999998
Gd Zr Fe Si
1 2 8 1
direct
   0.0003980000000000    0.0003980000000000    0.0008210000000000 Gd
   0.1414290000000000    0.1414290000000000    0.1434970000000000 Zr
   0.8580880000000000    0.8580880000000000    0.8550670000000000 Zr
   0.9195820000000000    0.4147540000000000    0.4141790000000000 Fe
   0.5841000000000000    0.0811580000000000    0.5852110000000000 Fe
   0.5859860000000000    0.5859860000000000    0.0820860000000000 Fe
   0.4147540000000000    0.9195820000000000    0.4141790000000000 Fe
   0.0811580000000000    0.5841000000000000    0.5852110000000000 Fe
   0.3329080000000000    0.3329080000000000    0.3333333333333333 Fe
   0.6668170000000000    0.6668170000000000    0.6662290000000000 Fe
   0.4982260000000000    0.4982260000000000    0.5026160000000000 Fe
   0.4165550000000000    0.4165550000000000    0.9175580000000000 Si
