Gd6 Al5 Fe18
1.0
   7.3663813183863232    0.0000000000000000    4.2524420628998962
   2.4557735268525658    6.9449821176245754    4.2524418071461447
   0.0000000000000000    0.0000000000000000    8.5065072700000002
Gd Al Fe
6 5 18
direct
   0.7029580000000000    0.7029580000000000    0.2979070000000000 Gd
   0.2961760000000000    0.7029580000000000    0.2979070000000000 Gd
   0.7029580000000000    0.2961760000000000    0.2979070000000000 Gd
   0.2975630000000000    0.2975630000000000    0.7058010000000000 Gd
   0.6990730000000001    0.2975630000000000    0.7058010000000000 Gd
   0.2975630000000000    0.6990730000000001    0.7058010000000000 Gd
   0.8804220000000000    0.8804220000000000    0.3587360000000000 Al
   0.8774230000000000    0.3624900000000000    0.8826650000000000 Al
   0.3624900000000000    0.8774230000000000    0.8826650000000000 Al
   0.8774230000000000    0.8774230000000000    0.8826650000000000 Al
   0.1228090000000000    0.1228090000000000    0.6315730000000001 Al
   0.0000110000000000    0.0000110000000000    0.9999670000000001 Fe
   0.0024310000000000    0.0024310000000000    0.4946930000000000 Fe
   0.5004459999999999    0.0024310000000000    0.4946930000000000 Fe
   0.0024310000000000    0.5004459999999999    0.4946930000000000 Fe
   0.4968240000000000    0.4968240000000000    0.0033190000000000 Fe
   0.0030340000000000    0.4968240000000000    0.0033190000000000 Fe
   0.4968240000000000    0.0030340000000000    0.0033190000000000 Fe
   0.1202950000000000    0.6383850000000000    0.1210230000000000 Fe
   0.6383850000000000    0.1202950000000000    0.1210230000000000 Fe
   0.1202950000000000    0.1202950000000000    0.1210230000000000 Fe
   0.6747300000000001    0.6747300000000001    0.9758100000000000 Fe
   0.6772030000000000    0.9703770000000000    0.6752180000000000 Fe
   0.9703770000000000    0.6772030000000000    0.6752180000000000 Fe
   0.6772030000000000    0.6772030000000000    0.6752180000000000 Fe
   0.3257730000000000    0.3257730000000000    0.0226790000000000 Fe
   0.3249440000000000    0.0269930000000000    0.3231180000000000 Fe
   0.0269930000000000    0.3249440000000000    0.3231180000000000 Fe
   0.3249440000000000    0.3249440000000000    0.3231180000000000 Fe
