Gd4 Fe11 Co3
1.0
   4.9601121951224361    0.0000000000000000    1.0301372321693716
   2.3755089393047912    4.3439833298338177    1.0184640046899984
   0.0000000000000000    0.0000000000000000   12.4565487000000008
Gd Fe Co
4 11 3
direct
   0.9473980000000000    0.9472150000000000    0.1579900000000000 Gd
   0.0524330000000000    0.0524540000000000    0.8426790000000000 Gd
   0.8498390000000000    0.8508190000000000    0.4495030000000000 Gd
   0.1493350000000000    0.1491200000000000    0.5522080000000000 Gd
   0.7204540000000000    0.7234470000000000    0.8356450000000000 Fe
   0.2793190000000000    0.2770740000000000    0.1642880000000000 Fe
   0.6116279999999999    0.6135420000000000    0.1632020000000000 Fe
   0.3889020000000000    0.3858870000000000    0.8363090000000000 Fe
   0.0001130000000000    0.4999260000000000    0.9998740000000000 Fe
   0.5000869999999999    0.4999260000000000    0.9998740000000000 Fe
   0.3900720000000000    0.3902690000000000    0.3289390000000000 Fe
   0.8907190000000000    0.3902690000000000    0.3289390000000000 Fe
   0.3898310000000000    0.8913110000000000    0.3290270000000000 Fe
   0.6096250000000000    0.6098410000000000    0.6706180000000000 Fe
   0.1099170000000000    0.6098410000000000    0.6706180000000000 Fe
   0.5002270000000000    0.5004710000000000    0.4990750000000000 Co
   0.5000700000000000    0.9998770000000000    0.9999820000000000 Co
   0.6100310000000000    0.1087080000000000    0.6712300000000000 Co
