Gd3 Sc2 Fe18 Co1 P12
1.0
  11.8329979999999999    0.0000000000000000    0.0000000000000007
  -5.9164989995547321   10.2476769982045894    0.0000000000000007
   0.0000000000000000    0.0000000000000000    3.6621380000000001
Gd Sc Fe Co P
3 2 18 1 12
direct
   0.1849020000000000    0.1849020000000000    0.5000000000000000 Gd
   0.8150980000000000    0.0000000000000000    0.5000000000000000 Gd
   0.0000000000000000    0.8150980000000000    0.5000000000000000 Gd
   0.6666666666666666    0.3333333333333333    0.0000000000000000 Sc
   0.3333333333333333    0.6666666666666666    0.0000000000000000 Sc
   0.8173830000000000    0.1991510000000000    0.0000000000000000 Fe
   0.8008490000000000    0.6182299999999999    0.0000000000000000 Fe
   0.3817700000000000    0.1826170000000000    0.0000000000000000 Fe
   0.1991510000000000    0.8173830000000000    0.0000000000000000 Fe
   0.6182299999999999    0.8008490000000000    0.0000000000000000 Fe
   0.1826170000000000    0.3817700000000000    0.0000000000000000 Fe
   0.5569890000000000    0.5569890000000000    0.0000000000000000 Fe
   0.4430110000000000    0.0000000000000000    0.0000000000000000 Fe
   0.0000000000000000    0.4430110000000000    0.0000000000000000 Fe
   0.6391800000000000    0.1233530000000000    0.5000000000000000 Fe
   0.8766470000000000    0.5158270000000000    0.5000000000000000 Fe
   0.4841730000000000    0.3608200000000000    0.5000000000000000 Fe
   0.1233530000000000    0.6391800000000000    0.5000000000000000 Fe
   0.5158270000000000    0.8766470000000000    0.5000000000000000 Fe
   0.3608200000000000    0.4841730000000000    0.5000000000000000 Fe
   0.7134490000000000    0.7134490000000000    0.5000000000000000 Fe
   0.2865510000000000    0.0000000000000000    0.5000000000000000 Fe
   0.0000000000000000    0.2865510000000000    0.5000000000000000 Fe
   0.0000000000000000    0.0000000000000000    0.0000000000000000 Co
   0.3699790000000000    0.3699790000000000    0.0000000000000000 P
   0.6300210000000001    0.0000000000000000    0.0000000000000000 P
   0.0000000000000000    0.6300210000000001    0.0000000000000000 P
   0.8305140000000000    0.3127040000000000    0.5000000000000000 P
   0.6872960000000000    0.5178100000000000    0.5000000000000000 P
   0.4821900000000000    0.1694860000000000    0.5000000000000000 P
   0.3127040000000000    0.8305140000000000    0.5000000000000000 P
   0.5178100000000000    0.6872960000000000    0.5000000000000000 P
   0.1694860000000000    0.4821900000000000    0.5000000000000000 P
   0.8148040000000000    0.8148040000000000    0.0000000000000000 P
   0.1851960000000000    0.0000000000000000    0.0000000000000000 P
   0.0000000000000000    0.1851960000000000    0.0000000000000000 P
