Gd1 Zr2 Sc1 Fe8
1.0
   4.7866099401583933    0.0000000000000000    7.2421784041778601
   2.1770382010606193    4.2628791904641137    7.2421797262207157
   0.0000000000000000    0.0000000000000000    8.6810593300000001
Gd Zr Sc Fe
1 2 1 8
direct
   0.1248110000000000    0.1248110000000000    0.1248110000000000 Gd
   0.9986730000000000    0.9986730000000000    0.9986730000000000 Zr
   0.5014580000000000    0.5014580000000000    0.5014580000000000 Zr
   0.6253010000000000    0.6253010000000000    0.6253010000000000 Sc
   0.5620050000000000    0.0605630000000000    0.5620050000000000 Fe
   0.0633120000000000    0.5636890000000000    0.0633120000000000 Fe
   0.0605630000000000    0.5620050000000000    0.5620050000000000 Fe
   0.5636890000000000    0.0633120000000000    0.0633120000000000 Fe
   0.8125100000000000    0.8125100000000000    0.8125100000000000 Fe
   0.3123600000000000    0.3123600000000000    0.3123600000000000 Fe
   0.5620050000000000    0.5620050000000000    0.0605630000000000 Fe
   0.0633120000000000    0.0633120000000000    0.5636890000000000 Fe
