Gd3 Mg1 Co8
1.0
   4.7745803845752244    0.0000000000000000    7.2328334384277584
   2.1720068941556301    4.2519432154433003    7.2328334471670797
   0.0000000000000000    0.0000000000000000    8.6666317799999995
Gd Mg Co
3 1 8
direct
   0.6242510000000000    0.6242510000000000    0.6242510000000000 Gd
   0.0035940000000000    0.0035940000000000    0.0035940000000000 Gd
   0.4967320000000000    0.4967320000000000    0.4967320000000000 Gd
   0.1262910000000000    0.1262910000000000    0.1262910000000000 Mg
   0.5629000000000000    0.0641190000000000    0.5629000000000000 Co
   0.0621170000000000    0.5602140000000000    0.0621170000000000 Co
   0.0641190000000000    0.5629000000000000    0.5629000000000000 Co
   0.5602140000000000    0.0621170000000000    0.0621170000000000 Co
   0.8123340000000000    0.8123340000000000    0.8123340000000000 Co
   0.3124340000000000    0.3124340000000000    0.3124340000000000 Co
   0.5629000000000000    0.5629000000000000    0.0641190000000000 Co
   0.0621170000000000    0.0621170000000000    0.5602140000000000 Co
