Gd2 Fe11 Re1 P7
1.0
   8.9910112600000005    0.0000000000000000    0.0000000000000006
  -4.5518559926467681    7.7373609055025314    0.0000000000000005
   0.0000000000000000    0.0000000000000000    3.6525200000000000
Gd Fe Re P
2 11 1 7
direct
   0.6678760000000000    0.3338230000000000    0.0000000000000000 Gd
   0.3309730000000000    0.6682040000000000    0.5000000000000000 Gd
   0.4265530000000000    0.0560160000000000    0.5000000000000000 Fe
   0.9431630000000000    0.3681870000000000    0.5000000000000000 Fe
   0.6239590000000000    0.5695690000000000    0.5000000000000000 Fe
   0.1589520000000000    0.2774000000000000    0.5000000000000000 Fe
   0.7251950000000000    0.8840320000000000    0.5000000000000000 Fe
   0.1208360000000000    0.8471060000000000    0.5000000000000000 Fe
   0.3851220000000000    0.4323040000000000    0.0000000000000000 Fe
   0.5661680000000000    0.9529020000000000    0.0000000000000000 Fe
   0.0515100000000000    0.6149980000000000    0.0000000000000000 Fe
   0.2171190000000000    0.0943140000000000    0.0000000000000000 Fe
   0.9047700000000000    0.1191700000000000    0.0000000000000000 Fe
   0.8825380000000000    0.7843460000000000    0.0000000000000000 Re
   0.1112470000000000    0.4023640000000000    0.0000000000000000 P
   0.5914680000000000    0.7140580000000000    0.0000000000000000 P
   0.2907810000000000    0.8864910000000000    0.0000000000000000 P
   0.0021530000000000    0.0041830000000000    0.5000000000000000 P
   0.4105190000000000    0.2918150000000000    0.5000000000000000 P
   0.7000580000000000    0.1139130000000000    0.5000000000000000 P
   0.8890410000000000    0.5848050000000000    0.5000000000000000 P
