Gd2 Ti1 Co16
1.0
   6.2524226120060611    0.0000000000000000    0.7699367579998462
   0.6809401281376826    6.2152316529160165    0.7699371838947230
   0.0000000000000000    0.0000000000000000    6.2996489999999996
Gd Ti Co
2 1 16
direct
   0.6561180000000000    0.6561180000000000    0.6561180000000000 Gd
   0.3517010000000000    0.3517010000000000    0.3517010000000000 Gd
   0.0925600000000000    0.0925600000000000    0.0925600000000000 Ti
   0.2913870000000000    0.7078190000000000    0.9978830000000000 Co
   0.7078190000000000    0.9978830000000000    0.2913870000000000 Co
   0.9978830000000000    0.2913870000000000    0.7078190000000000 Co
   0.2913870000000000    0.9978830000000000    0.7078190000000000 Co
   0.9978830000000000    0.7078190000000000    0.2913870000000000 Co
   0.7078190000000000    0.2913870000000000    0.9978830000000000 Co
   0.9985849999999999    0.9985849999999999    0.5046290000000000 Co
   0.9985849999999999    0.5046290000000000    0.9985849999999999 Co
   0.5046290000000000    0.9985849999999999    0.9985849999999999 Co
   0.3472960000000000    0.3472960000000000    0.8486890000000000 Co
   0.3472960000000000    0.8486890000000000    0.3472960000000000 Co
   0.8486890000000000    0.3472960000000000    0.3472960000000000 Co
   0.6552030000000000    0.6552030000000000    0.1495620000000000 Co
   0.6552030000000000    0.1495620000000000    0.6552030000000000 Co
   0.1495620000000000    0.6552030000000000    0.6552030000000000 Co
   0.9003920000000000    0.9003920000000000    0.9003920000000000 Co
