Ce1 Gd1 Co22
1.0
   7.4820297587829296    0.0000000000000000   -1.2975918343733643
  -5.2989471136774169    5.2813460503644363   -1.2966845678326939
   0.0000000000000000    0.0000000000000000    7.5937161800000004
Ce Gd Co
1 1 22
direct
   0.2499880000000000    0.7499820000000000    0.4999940000000000 Ce
   0.9999970000000000    0.9999860000000000    0.9999900000000000 Gd
   0.4306380000000000    0.1030990000000000    0.9198270000000000 Co
   0.1832600000000000    0.5108140000000000    0.0801820000000000 Co
   0.4999810000000000    0.4999530000000000    0.9999730000000000 Co
   0.7499240000000000    0.2498920000000000    0.4999690000000000 Co
   0.6268670000000000    0.3782200000000000    0.7513530000000000 Co
   0.1243550000000000    0.3730400000000000    0.7512970000000000 Co
   0.6217430000000000    0.3730400000000000    0.2486850000000000 Co
   0.6269840000000000    0.8756389999999999    0.2486550000000000 Co
   0.1832720000000000    0.1030990000000000    0.6724620000000000 Co
   0.7609110000000000    0.9320980000000000    0.5798950000000000 Co
   0.3521410000000000    0.1809690000000000    0.4201060000000000 Co
   0.4306320000000000    0.5108140000000000    0.3275540000000000 Co
   0.8970050000000001    0.8167700000000000    0.3276240000000000 Co
   0.4891060000000000    0.5693480000000000    0.6723930000000000 Co
   0.0679510000000000    0.2391060000000000    0.4200460000000000 Co
   0.8190670000000000    0.6479190000000000    0.5799670000000000 Co
   0.0679520000000000    0.6479190000000000    0.8288510000000000 Co
   0.4891450000000000    0.8167700000000000    0.9197650000000001 Co
   0.8969560000000000    0.5693480000000000    0.0802420000000000 Co
   0.8190600000000000    0.2391060000000000    0.1711560000000000 Co
   0.3522040000000000    0.9320980000000000    0.1711900000000000 Co
   0.7608640000000000    0.1809690000000000    0.8288280000000000 Co
