Gd4 Fe8
1.0
   4.9169761250566149    0.0000000000000000    7.4181832445489615
   2.2352682726289181    4.3795244698639682    7.4181829212637638
   0.0000000000000000    0.0000000000000000    8.8997811500000008
Gd Fe
4 8
direct
   0.3125750000000000    0.3125750000000000    0.3125750000000000 Gd
   0.6874910000000000    0.6874910000000000    0.6874910000000000 Gd
   0.1873740000000000    0.1873740000000000    0.1873740000000000 Gd
   0.8125570000000000    0.8125570000000000    0.8125570000000000 Gd
   0.4999530000000000    0.4999530000000000    0.4999530000000000 Fe
   0.0000300000000000    0.0000300000000000    0.0000300000000000 Fe
   0.2499810000000000    0.2499810000000000    0.7502080000000000 Fe
   0.7500700000000000    0.7500700000000000    0.2497090000000000 Fe
   0.2499810000000000    0.7502080000000000    0.2499810000000000 Fe
   0.7500700000000000    0.2497090000000000    0.7500700000000000 Fe
   0.7502080000000000    0.2499810000000000    0.2499810000000000 Fe
   0.2497090000000000    0.7500700000000000    0.7500700000000000 Fe
