Gd2 Mn1 Fe11 P7
1.0
   8.9553692799999993    0.0000000000000000    0.0000000000000005
  -4.4832465936117130    7.7524288587750556    0.0000000000000005
   0.0000000000000000    0.0000000000000000    3.6190899999999999
Gd Mn Fe P
2 1 11 7
direct
   0.6653470000000000    0.3321630000000000    0.0000000000000000 Gd
   0.3322040000000000    0.6666666666666666    0.5000000000000000 Gd
   0.8855800000000000    0.7850160000000000    0.0000000000000000 Mn
   0.4260760000000000    0.0570890000000000    0.5000000000000000 Fe
   0.9426260000000000    0.3679560000000000    0.5000000000000000 Fe
   0.6306030000000000    0.5734100000000000    0.5000000000000000 Fe
   0.1555420000000000    0.2759870000000000    0.5000000000000000 Fe
   0.7280320000000000    0.8814310000000000    0.5000000000000000 Fe
   0.1193940000000000    0.8466620000000000    0.5000000000000000 Fe
   0.3834850000000000    0.4343220000000000    0.0000000000000000 Fe
   0.5651350000000001    0.9499990000000000    0.0000000000000000 Fe
   0.0488570000000000    0.6139920000000000    0.0000000000000000 Fe
   0.2180720000000000    0.0990060000000000    0.0000000000000000 Fe
   0.9028790000000000    0.1165420000000000    0.0000000000000000 Fe
   0.1125150000000000    0.4014830000000000    0.0000000000000000 P
   0.5918510000000000    0.7092650000000000    0.0000000000000000 P
   0.2888800000000000    0.8876410000000000    0.0000000000000000 P
   0.0035940000000000    0.0048460000000000    0.5000000000000000 P
   0.4119730000000000    0.2994740000000000    0.5000000000000000 P
   0.7002760000000000    0.1117650000000000    0.5000000000000000 P
   0.8870800000000000    0.5853400000000000    0.5000000000000000 P
