Sm1 Gd1 Fe8 B2
1.0
   5.0897649999999999    0.0000000000000000    0.0000000000000003
  -2.5448819987934601    4.4078659978355637    0.0000000000000003
   0.0000000000000000    0.0000000000000000    7.0617320000000001
Sm Gd Fe B
1 1 8 2
direct
   0.0000000000000000    0.0000000000000000    0.0000000000000000 Sm
   0.0000000000000000    0.0000000000000000    0.5000000000000000 Gd
   0.6666666666666666    0.3333333333333333    0.0000000000000000 Fe
   0.3333333333333333    0.6666666666666666    0.0000000000000000 Fe
   0.5000000000000000    0.5000000000000000    0.7119380000000000 Fe
   0.5000000000000000    0.0000000000000000    0.7119380000000000 Fe
   0.0000000000000000    0.5000000000000000    0.7119380000000000 Fe
   0.5000000000000000    0.5000000000000000    0.2880620000000000 Fe
   0.5000000000000000    0.0000000000000000    0.2880620000000000 Fe
   0.0000000000000000    0.5000000000000000    0.2880620000000000 Fe
   0.6666666666666666    0.3333333333333333    0.5000000000000000 B
   0.3333333333333333    0.6666666666666666    0.5000000000000000 B
