Gd1 Y1 Fe3 Co1
1.0
   4.4608784815334541    0.0000000000000000    2.5830011536840032
   1.4891230722857183    4.2049898326345723    2.5830012166564775
   0.0000000000000000    0.0000000000000000    5.1547387899999997
Gd Y Fe Co
1 1 3 1
direct
   0.2500370000000000    0.2500370000000000    0.2500370000000000 Gd
   0.9998410000000000    0.9998410000000000    0.9998410000000000 Y
   0.6248510000000000    0.6248510000000000    0.1255810000000000 Fe
   0.6248510000000000    0.1255810000000000    0.6248510000000000 Fe
   0.1255810000000000    0.6248510000000000    0.6248510000000000 Fe
   0.6248430000000000    0.6248430000000000    0.6248430000000000 Co
