Gd5 Y1 Fe14 B4
1.0
   5.1249399999999996    0.0000000000000000    0.0000000000000003
  -2.5624699987229782    4.4383269980786908    0.0000000000000003
   0.0000000000000000    0.0000000000000000   14.5460170000000009
Gd Y Fe B
5 1 14 4
direct
   0.3333333333333333    0.6666666666666666    0.4657800000000000 Gd
   0.6666666666666666    0.3333333333333333    0.9658010000000000 Gd
   0.6666666666666666    0.3333333333333333    0.5341990000000000 Gd
   0.3333333333333333    0.6666666666666666    0.0342200000000000 Gd
   0.3333333333333333    0.6666666666666666    0.2500000000000000 Gd
   0.6666666666666666    0.3333333333333333    0.7500000000000000 Y
   0.8344540000000000    0.6689090000000000    0.3532990000000000 Fe
   0.3310910000000000    0.1655460000000000    0.3532990000000000 Fe
   0.0000000000000000    0.0000000000000000    0.9999980000000001 Fe
   0.0000000000000000    0.0000000000000000    0.5000019999999999 Fe
   0.8344540000000000    0.1655460000000000    0.1467010000000000 Fe
   0.6689150000000000    0.8344570000000000    0.6466850000000000 Fe
   0.1655430000000000    0.3310850000000000    0.6466850000000000 Fe
   0.8344540000000000    0.6689090000000000    0.1467010000000000 Fe
   0.3310910000000000    0.1655460000000000    0.1467010000000000 Fe
   0.6689150000000000    0.8344570000000000    0.8533150000000000 Fe
   0.1655430000000000    0.3310850000000000    0.8533150000000000 Fe
   0.1655430000000000    0.8344570000000000    0.6466850000000000 Fe
   0.1655430000000000    0.8344570000000000    0.8533150000000000 Fe
   0.8344540000000000    0.1655460000000000    0.3532990000000000 Fe
   0.6666666666666666    0.3333333333333333    0.2500000000000000 B
   0.3333333333333333    0.6666666666666666    0.7500000000000000 B
   0.0000000000000000    0.0000000000000000    0.7500000000000000 B
   0.0000000000000000    0.0000000000000000    0.2500000000000000 B
