Gd2 Y3 Lu1 Fe18
1.0
   5.0975729999999997    0.0000000000000000    0.0000000000000003
  -2.5487860014878487    4.4146280034617389    0.0000000000000003
   0.0000000000000000    0.0000000000000000   16.0952050000000000
Gd Y Lu Fe
2 3 1 18
direct
   0.6666666666666666    0.3333333333333333    0.0363750000000000 Gd
   0.6666666666666666    0.3333333333333333    0.4625250000000000 Gd
   0.3333333333333333    0.6666666666666666    0.5368050000000000 Y
   0.3333333333333333    0.6666666666666666    0.7512230000000000 Y
   0.6666666666666666    0.3333333333333333    0.2496000000000000 Y
   0.3333333333333333    0.6666666666666666    0.9634210000000000 Lu
   0.1668090000000000    0.8331910000000000    0.3725000000000000 Fe
   0.1668090000000000    0.3336180000000000    0.3725000000000000 Fe
   0.6663820000000000    0.8331910000000000    0.3725000000000000 Fe
   0.8329470000000000    0.1670530000000000    0.6276310000000000 Fe
   0.8329470000000000    0.6658940000000000    0.6276310000000000 Fe
   0.3341060000000000    0.1670530000000000    0.6276310000000000 Fe
   0.8327670000000000    0.1672330000000000    0.8740190000000000 Fe
   0.8327670000000000    0.6655340000000000    0.8740190000000000 Fe
   0.3344660000000000    0.1672330000000000    0.8740190000000000 Fe
   0.1672740000000000    0.8327260000000000    0.1259850000000000 Fe
   0.1672740000000000    0.3345470000000000    0.1259850000000000 Fe
   0.6654530000000000    0.8327260000000000    0.1259850000000000 Fe
   0.3333333333333333    0.6666666666666666    0.2495930000000000 Fe
   0.6666666666666666    0.3333333333333333    0.7505110000000000 Fe
   0.0000000000000000    0.0000000000000000    0.2493980000000000 Fe
   0.0000000000000000    0.0000000000000000    0.7506130000000000 Fe
   0.0000000000000000    0.0000000000000000    0.4997060000000000 Fe
   0.0000000000000000    0.0000000000000000    0.9998220000000000 Fe
