Gd2 Lu1 Fe8 Ru1
1.0
   4.8433862704326351    0.0000000000000000    7.2685602338477171
   2.1998672847602223    4.3149714333788092    7.2685603688536782
   0.0000000000000000    0.0000000000000000    8.7344351600000003
Gd Lu Fe Ru
2 1 8 1
direct
   0.0001370000000000    0.0001370000000000    0.0001370000000000 Gd
   0.8581630000000000    0.8581630000000000    0.8581630000000000 Gd
   0.1415910000000000    0.1415910000000000    0.1415910000000000 Lu
   0.4181900000000000    0.4181900000000000    0.9227870000000000 Fe
   0.9227870000000000    0.4181900000000000    0.4181900000000000 Fe
   0.5818540000000000    0.0773750000000000    0.5818540000000000 Fe
   0.5818540000000000    0.5818540000000000    0.0773750000000000 Fe
   0.4181900000000000    0.9227870000000000    0.4181900000000000 Fe
   0.0773750000000000    0.5818540000000000    0.5818540000000000 Fe
   0.3329260000000000    0.3329260000000000    0.3329260000000000 Fe
   0.6670700000000001    0.6670700000000001    0.6670700000000001 Fe
   0.4998640000000000    0.4998640000000000    0.4998640000000000 Ru
