Gd1 Y1 Co4
1.0
   4.4041165652276257    0.0000000000000000    2.5405070855854643
   1.4691214618668860    4.1516285869201903    2.5391016420676671
   0.0000000000000000    0.0000000000000000    5.0836377700000002
Gd Y Co
1 1 4
direct
   0.5001038000000000    0.5001124700000000    0.4998777600000000 Gd
   0.2499841200000000    0.2499274600000000    0.2500852300000000 Y
   0.8750562400000000    0.8750703700000000    0.3748130500000000 Co
   0.8750318200000000    0.3748505500000000    0.8750959300000000 Co
   0.3747948300000000    0.8750554800000000    0.8750833000000000 Co
   0.8750281900000000    0.8749836800000000    0.8750447300000000 Co
