Gd8 Fe56 C4
1.0
   8.6372090000000004    0.0000000000000000    0.0000000000000005
  -0.0000000000000005    8.6372090000000004    0.0000000000000005
   0.0000000000000000    0.0000000000000000   11.6058120000000002
Gd Fe C
8 56 4
direct
   0.2386370000000000    0.7613630000000000    0.5000000000000000 Gd
   0.7613630000000000    0.2386370000000000    0.5000000000000000 Gd
   0.2613630000000000    0.2613630000000000    0.0000000000000000 Gd
   0.7386370000000000    0.7386370000000000    0.0000000000000000 Gd
   0.6423230000000000    0.6423230000000000    0.5000000000000000 Gd
   0.3576770000000000    0.3576770000000000    0.5000000000000000 Gd
   0.8576770000000000    0.1423230000000000    0.0000000000000000 Gd
   0.1423230000000000    0.8576770000000000    0.0000000000000000 Gd
   0.0000000000000000    0.5000000000000000    0.5000000000000000 Fe
   0.5000000000000000    0.0000000000000000    0.0000000000000000 Fe
   0.5000000000000000    0.0000000000000000    0.5000000000000000 Fe
   0.0000000000000000    0.5000000000000000    0.0000000000000000 Fe
   0.5000000000000000    0.5000000000000000    0.1082130000000000 Fe
   0.0000000000000000    0.0000000000000000    0.6082130000000000 Fe
   0.5000000000000000    0.5000000000000000    0.8917870000000000 Fe
   0.0000000000000000    0.0000000000000000    0.3917870000000000 Fe
   0.1846280000000000    0.8153720000000000    0.2549440000000000 Fe
   0.8153720000000000    0.1846280000000000    0.2549440000000000 Fe
   0.3153720000000000    0.3153720000000000    0.7549439999999999 Fe
   0.6846280000000000    0.6846280000000000    0.7549439999999999 Fe
   0.8153720000000000    0.1846280000000000    0.7450560000000001 Fe
   0.1846280000000000    0.8153720000000000    0.7450560000000001 Fe
   0.6846280000000000    0.6846280000000000    0.2450560000000000 Fe
   0.3153720000000000    0.3153720000000000    0.2450560000000000 Fe
   0.4047690000000000    0.5952310000000000    0.2932610000000000 Fe
   0.5952310000000000    0.4047690000000000    0.2932610000000000 Fe
   0.0952310000000000    0.0952310000000000    0.7932610000000000 Fe
   0.9047690000000000    0.9047690000000000    0.7932610000000000 Fe
   0.5952310000000000    0.4047690000000000    0.7067390000000000 Fe
   0.4047690000000000    0.5952310000000000    0.7067390000000000 Fe
   0.9047690000000000    0.9047690000000000    0.2067390000000000 Fe
   0.0952310000000000    0.0952310000000000    0.2067390000000000 Fe
   0.1454510000000000    0.5332810000000000    0.3193600000000000 Fe
   0.8545490000000000    0.4667190000000000    0.3193600000000000 Fe
   0.3545490000000000    0.0332810000000000    0.8193600000000000 Fe
   0.6454510000000000    0.9667190000000000    0.8193600000000000 Fe
   0.8545490000000000    0.4667190000000000    0.6806400000000000 Fe
   0.1454510000000000    0.5332810000000000    0.6806400000000000 Fe
   0.6454510000000000    0.9667190000000000    0.1806400000000000 Fe
   0.3545490000000000    0.0332810000000000    0.1806400000000000 Fe
   0.5332810000000000    0.1454510000000000    0.3193600000000000 Fe
   0.4667190000000000    0.8545490000000000    0.3193600000000000 Fe
   0.0332810000000000    0.3545490000000000    0.8193600000000000 Fe
   0.9667190000000000    0.6454510000000000    0.8193600000000000 Fe
   0.4667190000000000    0.8545490000000000    0.6806400000000000 Fe
   0.5332810000000000    0.1454510000000000    0.6806400000000000 Fe
   0.9667190000000000    0.6454510000000000    0.1806400000000000 Fe
   0.0332810000000000    0.3545490000000000    0.1806400000000000 Fe
   0.9341030000000000    0.7268700000000000    0.3763720000000000 Fe
   0.0658970000000000    0.2731300000000000    0.3763720000000000 Fe
   0.5658970000000000    0.2268700000000000    0.8763720000000000 Fe
   0.4341030000000000    0.7731300000000000    0.8763720000000000 Fe
   0.0658970000000000    0.2731300000000000    0.6236280000000000 Fe
   0.9341030000000000    0.7268700000000000    0.6236280000000000 Fe
   0.4341030000000000    0.7731300000000000    0.1236280000000000 Fe
   0.5658970000000000    0.2268700000000000    0.1236280000000000 Fe
   0.7268700000000000    0.9341030000000000    0.3763720000000000 Fe
   0.2731300000000000    0.0658970000000000    0.3763720000000000 Fe
   0.2268700000000000    0.5658970000000000    0.8763720000000000 Fe
   0.7731300000000000    0.4341030000000000    0.8763720000000000 Fe
   0.2731300000000000    0.0658970000000000    0.6236280000000000 Fe
   0.7268700000000000    0.9341030000000000    0.6236280000000000 Fe
   0.7731300000000000    0.4341030000000000    0.1236280000000000 Fe
   0.2268700000000000    0.5658970000000000    0.1236280000000000 Fe
   0.8724060000000000    0.8724060000000000    0.5000000000000000 C
   0.1275940000000000    0.1275940000000000    0.5000000000000000 C
   0.6275940000000000    0.3724060000000000    0.0000000000000000 C
   0.3724060000000000    0.6275940000000000    0.0000000000000000 C
