Gd6 Fe1 Co22
1.0
   8.2951560000000004    0.0000000000000000    0.0000000000000005
  -4.1475780027396842    5.8655620022488275   -4.1475780027396851
   0.0000000000000000    0.0000000000000000    8.2951560000000004
Gd Fe Co
6 1 22
direct
   0.7134790000000000    0.0000000000000000    0.2865200000000000 Gd
   0.2865210000000000    0.0000000000000000    0.2865210000000000 Gd
   0.2865210000000000    0.5730420000000001    0.2865210000000000 Gd
   0.2865200000000000    0.0000000000000000    0.7134790000000000 Gd
   0.7134790000000000    0.0000000000000000    0.7134790000000000 Gd
   0.7134790000000000    0.4269590000000000    0.7134790000000000 Gd
   0.0000000000000000    0.0000000000000000    0.0000000000000000 Fe
   0.5000010000000000    0.0000000000000000    0.0000000000000000 Co
   0.0000000000000000    0.5000010000000000    0.0000000000000000 Co
   0.5000010000000000    0.5000010000000000    0.0000000000000000 Co
   0.6766650000000000    0.3533300000000000    0.0299960000000000 Co
   0.8766850000000000    0.7533690000000000    0.1233150000000000 Co
   0.3699450000000000    0.2466300000000000    0.1233150000000000 Co
   0.8766850000000000    0.2466300000000000    0.1233150000000000 Co
   0.6766650000000000    0.3533300000000000    0.3233340000000000 Co
   0.6766650000000000    0.6466700000000000    0.3233340000000000 Co
   0.9700040000000000    0.6466700000000000    0.3233340000000000 Co
   0.1233150000000000    0.2466300000000000    0.3699450000000000 Co
   0.0000000000000000    0.0000000000000000    0.5000010000000000 Co
   0.0000000000000000    0.5000010000000000    0.5000010000000000 Co
   0.5000010000000000    0.5000010000000000    0.5000010000000000 Co
   0.8766850000000000    0.7533690000000000    0.6300540000000000 Co
   0.0299960000000000    0.3533300000000000    0.6766650000000000 Co
   0.3233340000000000    0.3533300000000000    0.6766650000000000 Co
   0.3233340000000000    0.6466700000000000    0.6766650000000000 Co
   0.1233150000000000    0.2466300000000000    0.8766850000000000 Co
   0.1233150000000000    0.7533690000000000    0.8766850000000000 Co
   0.6300540000000000    0.7533690000000000    0.8766850000000000 Co
   0.3233340000000000    0.6466700000000000    0.9700040000000000 Co
