Gd1 Ga2 Fe8 Re2
1.0
   4.4197485753712398    0.0000000000000000   -1.7294796588157768
   2.2476510082038685    6.0635060976873492   -0.7682023024247572
   0.0000000000000000    0.0000000000000000    6.5121571400000002
Gd Ga Fe Re
1 2 8 2
direct
   0.0000000000000000    0.0000000000000000    0.0000000000000000 Gd
   0.7083750000000000    0.7916250000000000    0.2083750000000000 Ga
   0.2916250000000000    0.2083750000000000    0.7916250000000000 Ga
   0.5000000000000000    0.7724010000000000    0.7724010000000000 Fe
   0.5000000000000000    0.2275990000000000    0.2275990000000000 Fe
   0.5000000000000000    0.0000000000000000    0.5000000000000000 Fe
   0.0000000000000000    0.0000000000000000    0.5000000000000000 Fe
   0.5000000000000000    0.5000000000000000    0.0000000000000000 Fe
   0.0000000000000000    0.5000000000000000    0.0000000000000000 Fe
   0.6377280000000000    0.3622720000000000    0.6377280000000000 Fe
   0.3622720000000000    0.6377280000000000    0.3622720000000000 Fe
   0.0000000000000000    0.3574390000000000    0.3574390000000000 Re
   0.0000000000000000    0.6425610000000000    0.6425610000000000 Re
