Gd3 Fe8 Co1
1.0
   4.8673156529122625    0.0000000000000000    7.1057801532005804
   2.2003108202361124    4.3415892627451766    7.1057798920423743
   0.0000000000000000    0.0000000000000000    8.6129457299999999
Gd Fe Co
3 8 1
direct
   0.0000000000000000    0.0000000000000000    0.0000000000000000 Gd
   0.1419900000000000    0.1419900000000000    0.1419900000000000 Gd
   0.8580100000000001    0.8580100000000001    0.8580100000000001 Gd
   0.4180190000000000    0.4180190000000000    0.9179480000000000 Fe
   0.9179480000000000    0.4180190000000000    0.4180190000000000 Fe
   0.5819810000000000    0.0820520000000000    0.5819810000000000 Fe
   0.5819810000000000    0.5819810000000000    0.0820520000000000 Fe
   0.4180190000000000    0.9179480000000000    0.4180190000000000 Fe
   0.0820520000000000    0.5819810000000000    0.5819810000000000 Fe
   0.3327610000000000    0.3327610000000000    0.3327610000000000 Fe
   0.6672390000000000    0.6672390000000000    0.6672390000000000 Fe
   0.5000000000000000    0.5000000000000000    0.5000000000000000 Co
