Sm1 Gd1 Fe14 Si3 C3
1.0
   6.4108532536854703    0.0000000000000000    0.7086831758853696
   0.6346602673520283    6.3793605260791892    0.7086834720018459
   0.0000000000000000    0.0000000000000000    6.4499050100000002
Sm Gd Fe Si C
1 1 14 3 3
direct
   0.6514880000000000    0.6514880000000000    0.6514880000000000 Sm
   0.3466440000000000    0.3466440000000000    0.3466440000000000 Gd
   0.7150470000000000    0.2843660000000000    0.0009370000000000 Fe
   0.0009370000000000    0.7150470000000000    0.2843660000000000 Fe
   0.2843660000000000    0.0009370000000000    0.7150470000000000 Fe
   0.0009370000000000    0.2843660000000000    0.7150470000000000 Fe
   0.7150470000000000    0.0009370000000000    0.2843660000000000 Fe
   0.2843660000000000    0.7150470000000000    0.0009370000000000 Fe
   0.3392770000000000    0.8643980000000000    0.3392770000000000 Fe
   0.3392770000000000    0.3392770000000000    0.8643980000000000 Fe
   0.8643980000000000    0.3392770000000000    0.3392770000000000 Fe
   0.6597450000000000    0.1377820000000000    0.6597450000000000 Fe
   0.6597450000000000    0.6597450000000000    0.1377820000000000 Fe
   0.1377820000000000    0.6597450000000000    0.6597450000000000 Fe
   0.9037490000000000    0.9037490000000000    0.9037490000000000 Fe
   0.0972810000000000    0.0972810000000000    0.0972810000000000 Fe
   0.9997210000000000    0.9997210000000000    0.4997800000000000 Si
   0.4997800000000000    0.9997210000000000    0.9997210000000000 Si
   0.9997210000000000    0.4997800000000000    0.9997210000000000 Si
   0.4978470000000000    0.4978470000000000    0.0049970000000000 C
   0.0049970000000000    0.4978470000000000    0.4978470000000000 C
   0.4978470000000000    0.0049970000000000    0.4978470000000000 C
