Gd5 Fe6 Co13
1.0
   5.0035203091245473    0.0000000000000000    0.8037366453264844
   2.4372055677629758    4.3698115018629284    0.8037376857084219
   0.0000000000000000    0.0000000000000000   15.9761340100000009
Gd Fe Co
5 6 13
direct
   0.0000000000000000    0.0000000000000000    0.0000000000000000 Gd
   0.0787390000000000    0.0787390000000000    0.7637820000000000 Gd
   0.9212610000000000    0.9212610000000000    0.2362180000000000 Gd
   0.1529420000000000    0.1529420000000000    0.5411760000000000 Gd
   0.8470580000000000    0.8470580000000000    0.4588240000000000 Gd
   0.2509720000000000    0.2509720000000000    0.2470840000000000 Fe
   0.7490280000000000    0.7490280000000000    0.7529160000000000 Fe
   0.3332360000000000    0.3332360000000000    0.0002910000000000 Fe
   0.6667640000000000    0.6667640000000000    0.9997090000000000 Fe
   0.4157120000000000    0.4157120000000000    0.7528650000000000 Fe
   0.5842880000000000    0.5842880000000000    0.2471350000000000 Fe
   0.5000000000000000    0.5000000000000000    0.5000000000000000 Co
   0.1242380000000000    0.6232460000000000    0.6292690000000000 Co
   0.6232460000000000    0.6232460000000000    0.6292690000000000 Co
   0.6232460000000000    0.1242380000000000    0.6292690000000000 Co
   0.8757620000000000    0.3767540000000000    0.3707310000000000 Co
   0.3767540000000000    0.3767540000000000    0.3707310000000000 Co
   0.3767540000000000    0.8757620000000000    0.3707310000000000 Co
   0.0412180000000000    0.5408670000000000    0.8770460000000000 Co
   0.5408670000000000    0.5408670000000000    0.8770460000000000 Co
   0.5408670000000000    0.0412180000000000    0.8770460000000000 Co
   0.9587820000000000    0.4591330000000000    0.1229540000000000 Co
   0.4591330000000000    0.4591330000000000    0.1229540000000000 Co
   0.4591330000000000    0.9587820000000000    0.1229540000000000 Co
