Gd3 Hf3 Fe18
1.0
   4.9135361113219052    0.0000000000000000   -0.7677507378178813
   2.3967867667894969    4.2893177545332710   -0.7677506933899064
   0.0000000000000000    0.0000000000000000   16.1069718199999983
Gd Hf Fe
3 3 18
direct
   0.5710930000000000    0.5710930000000000    0.7132780000000000 Gd
   0.0002130000000000    0.0002130000000000    0.0006360000000000 Gd
   0.4993960000000000    0.4993960000000000    0.4981880000000000 Gd
   0.4284870000000000    0.4284870000000000    0.2854640000000000 Hf
   0.9290260000000000    0.9290260000000000    0.7870780000000001 Hf
   0.0714940000000000    0.0714940000000000    0.2144790000000000 Hf
   0.4551630000000000    0.9587390000000000    0.3726400000000000 Fe
   0.9572929999999999    0.4590170000000000    0.8753280000000000 Fe
   0.9587390000000000    0.9587390000000000    0.3726400000000000 Fe
   0.4590170000000000    0.4590170000000000    0.8753280000000000 Fe
   0.9587390000000000    0.4551630000000000    0.3726400000000000 Fe
   0.4590170000000000    0.9572929999999999    0.8753280000000000 Fe
   0.0448000000000000    0.5413510000000000    0.1275040000000000 Fe
   0.5436990000000000    0.0405090000000000    0.6247170000000000 Fe
   0.5413510000000000    0.5413510000000000    0.1275040000000000 Fe
   0.0405090000000000    0.0405090000000000    0.6247170000000000 Fe
   0.5413510000000000    0.0448000000000000    0.1275040000000000 Fe
   0.0405090000000000    0.5436990000000000    0.6247170000000000 Fe
   0.3340220000000000    0.3340220000000000    0.0020670000000000 Fe
   0.8329060000000000    0.8329060000000000    0.4987180000000000 Fe
   0.1660190000000000    0.1660190000000000    0.4980580000000000 Fe
   0.6670160000000001    0.6670160000000001    0.0010480000000000 Fe
   0.7500610000000000    0.7500610000000000    0.2501840000000000 Fe
   0.2500800000000000    0.2500800000000000    0.7502400000000000 Fe
