Gd2 Sc2 Mn2 Fe18 P12
1.0
   3.6339570000000001    0.0000000000000000    0.0000000000000002
  -0.0000000000000006   10.2254760000000005    0.0000000000000006
   0.0000000000000000    0.0000000000000000   11.7908919999999995
Gd Sc Mn Fe P
2 2 2 18 12
direct
   0.2500000000000000    0.5820500000000000    0.7047400000000000 Gd
   0.2500000000000000    0.9179500000000000    0.2047400000000000 Gd
   0.7500000000000000    0.4253730000000000    0.2966860000000000 Sc
   0.7500000000000000    0.0746270000000000    0.7966860000000000 Sc
   0.2500000000000000    0.7007040000000000    0.9893760000000000 Mn
   0.2500000000000000    0.7992960000000000    0.4893760000000000 Mn
   0.7500000000000000    0.2888290000000000    0.0099590000000000 Fe
   0.7500000000000000    0.2111710000000000    0.5099590000000001 Fe
   0.2500000000000000    0.4083790000000000    0.4870660000000000 Fe
   0.2500000000000000    0.0916220000000000    0.9870660000000000 Fe
   0.7500000000000000    0.5986570000000000    0.5109740000000000 Fe
   0.7500000000000000    0.9013430000000000    0.0109740000000000 Fe
   0.2500000000000000    0.2191950000000000    0.1754990000000000 Fe
   0.2500000000000000    0.2808050000000000    0.6754990000000000 Fe
   0.7500000000000000    0.7783910000000001    0.8285370000000000 Fe
   0.7500000000000000    0.7216089999999999    0.3285370000000000 Fe
   0.2500000000000000    0.8809590000000000    0.7010820000000000 Fe
   0.2500000000000000    0.6190410000000000    0.2010820000000000 Fe
   0.7500000000000000    0.1298410000000000    0.2979810000000000 Fe
   0.7500000000000000    0.3701590000000000    0.7979810000000001 Fe
   0.2500000000000000    0.4571510000000000    0.9321600000000000 Fe
   0.2500000000000000    0.0428490000000000    0.4321600000000000 Fe
   0.7500000000000000    0.5313800000000000    0.0662150000000000 Fe
   0.7500000000000000    0.9686200000000000    0.5662150000000000 Fe
   0.2500000000000000    0.4217640000000000    0.1160240000000000 P
   0.2500000000000000    0.0782360000000000    0.6160240000000000 P
   0.7500000000000000    0.5738630000000000    0.8852040000000000 P
   0.7500000000000000    0.9261370000000000    0.3852040000000000 P
   0.2500000000000000    0.2574310000000000    0.8689870000000000 P
   0.2500000000000000    0.2425690000000000    0.3689870000000000 P
   0.7500000000000000    0.7292800000000000    0.1370570000000000 P
   0.7500000000000000    0.7707200000000000    0.6370570000000000 P
   0.2500000000000000    0.5990320000000000    0.3898620000000000 P
   0.2500000000000000    0.9009680000000000    0.8898620000000000 P
   0.7500000000000000    0.4021540000000000    0.6025900000000000 P
   0.7500000000000000    0.0978460000000000    0.1025900000000000 P
