Gd1 Y1 Hf4 Fe18
1.0
   4.9890499999999998    0.0000000000000000    0.0000000000000003
  -2.4945260005184795    4.3206430012207031    0.0000000000000003
   0.0000000000000000    0.0000000000000000   15.8658310000000000
Gd Y Hf Fe
1 1 4 18
direct
   0.3333333333333333    0.6666666666666666    0.7500000000000000 Gd
   0.6666666666666666    0.3333333333333333    0.2500000000000000 Y
   0.3333333333333333    0.6666666666666666    0.9638370000000001 Hf
   0.6666666666666666    0.3333333333333333    0.0361530000000000 Hf
   0.6666666666666666    0.3333333333333333    0.4638470000000000 Hf
   0.3333333333333333    0.6666666666666666    0.5361629999999999 Hf
   0.1680480000000000    0.8319520000000000    0.3774230000000000 Fe
   0.1680480000000000    0.3360960000000000    0.3774230000000000 Fe
   0.6639040000000000    0.8319520000000000    0.3774230000000000 Fe
   0.8319700000000000    0.1680300000000000    0.6225880000000000 Fe
   0.8319700000000000    0.6639389999999999    0.6225880000000000 Fe
   0.3360610000000000    0.1680300000000000    0.6225880000000000 Fe
   0.8319700000000000    0.1680300000000000    0.8774120000000000 Fe
   0.8319700000000000    0.6639389999999999    0.8774120000000000 Fe
   0.3360610000000000    0.1680300000000000    0.8774120000000000 Fe
   0.1680480000000000    0.8319520000000000    0.1225770000000000 Fe
   0.1680480000000000    0.3360960000000000    0.1225770000000000 Fe
   0.6639040000000000    0.8319520000000000    0.1225770000000000 Fe
   0.3333333333333333    0.6666666666666666    0.2500000000000000 Fe
   0.6666666666666666    0.3333333333333333    0.7500000000000000 Fe
   0.0000000000000000    0.0000000000000000    0.2500000000000000 Fe
   0.0000000000000000    0.0000000000000000    0.7500000000000000 Fe
   0.0000000000000000    0.0000000000000000    0.4999930000000000 Fe
   0.0000000000000000    0.0000000000000000    0.0000070000000000 Fe
