Gd3 Fe9
1.0
   4.8687829721819247    0.0000000000000000    7.1265390572703895
   2.2019786751579904    4.3423882456804037    7.1265389340094814
   0.0000000000000000    0.0000000000000000    8.6309106999999994
Gd Fe
3 9
direct
   0.0003450000000000    0.0003450000000000    0.0003450000000000 Gd
   0.8577920000000000    0.8577920000000000    0.8577920000000000 Gd
   0.1417630000000000    0.1417630000000000    0.1417630000000000 Gd
   0.4997830000000000    0.4997830000000000    0.4997830000000000 Fe
   0.3326580000000000    0.3326580000000000    0.3326580000000000 Fe
   0.6674690000000000    0.6674690000000000    0.6674690000000000 Fe
   0.0828060000000000    0.5812889999999999    0.5812889999999999 Fe
   0.5812889999999999    0.5812889999999999    0.0828060000000000 Fe
   0.5812889999999999    0.0828060000000000    0.5812889999999999 Fe
   0.4186710000000000    0.9174639999999999    0.4186710000000000 Fe
   0.9174639999999999    0.4186710000000000    0.4186710000000000 Fe
   0.4186710000000000    0.4186710000000000    0.9174639999999999 Fe
