Gd1 Sc2 Fe9
1.0
   4.7745201421765895    0.0000000000000000    6.9620139875212947
   2.1579111588273832    4.2590447224187766    6.9620137864910223
   0.0000000000000000    0.0000000000000000    8.4419007100000005
Gd Sc Fe
1 2 9
direct
   0.0000000000000000    0.0000000000000000    0.0000000000000000 Gd
   0.1433300000000000    0.1433300000000000    0.1433300000000000 Sc
   0.8566700000000000    0.8566700000000000    0.8566700000000000 Sc
   0.5000000000000000    0.5000000000000000    0.5000000000000000 Fe
   0.3327280000000000    0.3327280000000000    0.3327280000000000 Fe
   0.6672720000000000    0.6672720000000000    0.6672720000000000 Fe
   0.0827600000000000    0.5853070000000000    0.5853070000000000 Fe
   0.5853070000000000    0.5853070000000000    0.0827600000000000 Fe
   0.5853070000000000    0.0827600000000000    0.5853070000000000 Fe
   0.4146930000000000    0.9172400000000001    0.4146930000000000 Fe
   0.9172400000000001    0.4146930000000000    0.4146930000000000 Fe
   0.4146930000000000    0.4146930000000000    0.9172400000000001 Fe
