Gd2 Fe17 H3
1.0
   6.3739243305825006    0.0000000000000000    0.6371994055136490
   0.5766747660809378    6.3477836751229226    0.6371994055136490
   0.0000000000000000    0.0000000000000000    6.4056959500000001
Gd Fe H
2 17 3
direct
   0.6570680000000000    0.6570680000000000    0.6570680000000000 Gd
   0.3429320000000000    0.3429320000000000    0.3429320000000000 Gd
   0.0000000000000000    0.0000000000000000    0.5000000000000000 Fe
   0.0000000000000000    0.5000000000000000    0.0000000000000000 Fe
   0.5000000000000000    0.0000000000000000    0.0000000000000000 Fe
   0.2846130000000000    0.7153870000000000    0.0000000000000000 Fe
   0.7153870000000000    0.0000000000000000    0.2846130000000000 Fe
   0.0000000000000000    0.2846130000000000    0.7153870000000000 Fe
   0.2846130000000000    0.0000000000000000    0.7153870000000000 Fe
   0.0000000000000000    0.7153870000000000    0.2846130000000000 Fe
   0.7153870000000000    0.2846130000000000    0.0000000000000000 Fe
   0.3424570000000000    0.3424570000000000    0.8467040000000000 Fe
   0.3424570000000000    0.8467040000000000    0.3424570000000000 Fe
   0.8467040000000000    0.3424570000000000    0.3424570000000000 Fe
   0.6575430000000000    0.6575430000000000    0.1532960000000000 Fe
   0.6575430000000000    0.1532960000000000    0.6575430000000000 Fe
   0.1532960000000000    0.6575430000000000    0.6575430000000000 Fe
   0.9021660000000000    0.9021660000000000    0.9021660000000000 Fe
   0.0978340000000000    0.0978340000000000    0.0978340000000000 Fe
   0.5000000000000000    0.5000000000000000    0.0000000000000000 H
   0.5000000000000000    0.0000000000000000    0.5000000000000000 H
   0.0000000000000000    0.5000000000000000    0.5000000000000000 H
