Gd2 Lu3 Zr1 Fe18
1.0
   4.9519025087532702    0.0000000000000000   -0.7739437856446424
   2.4154704960957898    4.3228271480326832   -0.7739438323259102
   0.0000000000000000    0.0000000000000000   16.2287726100000000
Gd Lu Zr Fe
2 3 1 18
direct
   0.9999730000000000    0.9999730000000000    0.9999180000000000 Gd
   0.5002100000000000    0.5002100000000000    0.5006290000000000 Gd
   0.4289540000000000    0.4289540000000000    0.2868650000000000 Lu
   0.9288280000000000    0.9288280000000000    0.7864860000000000 Lu
   0.0710680000000000    0.0710680000000000    0.2132030000000000 Lu
   0.5711710000000000    0.5711710000000000    0.7135120000000000 Zr
   0.4579390000000000    0.9594230000000000    0.3767840000000000 Fe
   0.9570380000000001    0.4590420000000000    0.8751220000000000 Fe
   0.9594230000000000    0.9594230000000000    0.3767840000000000 Fe
   0.4590420000000000    0.4590420000000000    0.8751220000000000 Fe
   0.9594230000000000    0.4579390000000000    0.3767840000000000 Fe
   0.4590420000000000    0.9570380000000001    0.8751220000000000 Fe
   0.0418830000000000    0.5406370000000000    0.1231580000000000 Fe
   0.5427080000000000    0.0409980000000000    0.6247040000000000 Fe
   0.5406370000000000    0.5406370000000000    0.1231580000000000 Fe
   0.0409980000000000    0.0409980000000000    0.6247040000000000 Fe
   0.5406370000000000    0.0418830000000000    0.1231580000000000 Fe
   0.0409980000000000    0.5427080000000000    0.6247040000000000 Fe
   0.3331830000000000    0.3331830000000000    0.9995510000000000 Fe
   0.8338719999999999    0.8338719999999999    0.5016170000000000 Fe
   0.1668630000000000    0.1668630000000000    0.5005920000000000 Fe
   0.6661589999999999    0.6661589999999999    0.9984769999999999 Fe
   0.7499780000000000    0.7499780000000000    0.2499370000000000 Fe
   0.2499710000000000    0.2499710000000000    0.7499110000000000 Fe
