Gd2 Fe3 Co1
1.0
   4.4725200010945994    0.0000000000000000    2.5822110002361227
   1.4908400001739970    4.2166539984130056    2.5822109988616750
   0.0000000000000000    0.0000000000000000    5.1644220000000001
Gd Fe Co
2 3 1
direct
   0.2500650000000000    0.2498060000000000    0.2500650000000000 Gd
   0.9999350000000000    0.0001940000000000    0.9999350000000000 Gd
   0.6250000000000000    0.6250000000000000    0.1250000000000000 Fe
   0.1250000000000000    0.6250000000000000    0.6250000000000000 Fe
   0.6250000000000000    0.6250000000000000    0.6250000000000000 Fe
   0.6250000000000000    0.1250000000000000    0.6250000000000000 Co
