Gd1 Lu5 Co23
1.0
   7.1448927583276873    0.0000000000000000    4.1301434615758890
   2.3849400130516409    6.7359640170872863    4.1206777229657332
   0.0000000000000000    0.0000000000000000    8.2481228600000005
Gd Lu Co
1 5 23
direct
   0.2884830000000000    0.7114450000000000    0.7115280000000000 Gd
   0.7133440000000000    0.7125840000000000    0.2866270000000000 Lu
   0.2874010000000000    0.7125550000000000    0.2869100000000000 Lu
   0.7122030000000000    0.2878670000000000    0.2878630000000000 Lu
   0.2873970000000000    0.2869130000000000    0.7126670000000001 Lu
   0.7130860000000000    0.2868010000000000    0.7125540000000000 Lu
   0.9999680000000000    0.0000080000000000    0.0000380000000000 Co
   0.9993339999999999    0.0009190000000000    0.4990250000000000 Co
   0.5009590000000000    0.0006750000000000    0.4992700000000000 Co
   0.9997710000000000    0.5002090000000000    0.5002300000000000 Co
   0.5009770000000000    0.4993030000000000    0.0006480000000000 Co
   0.9993350000000000    0.4990400000000000    0.0008810000000000 Co
   0.4997530000000000    0.0002230000000000    0.0002330000000000 Co
   0.8772080000000000    0.8777070000000000    0.3679060000000000 Co
   0.8770010000000000    0.3680310000000000    0.8776230000000000 Co
   0.3680420000000000    0.8775100000000000    0.8776380000000000 Co
   0.8767280000000000    0.8777000000000000    0.8774420000000001 Co
   0.1223860000000000    0.1232050000000000    0.6319150000000000 Co
   0.1226110000000000    0.6317980000000000    0.1232520000000000 Co
   0.6322420000000000    0.1228040000000000    0.1226810000000000 Co
   0.1224180000000000    0.1226810000000000    0.1229410000000000 Co
   0.6760530000000000    0.6762550000000001    0.9711050000000000 Co
   0.6761870000000000    0.9710640000000000    0.6762190000000000 Co
   0.9706350000000000    0.6763660000000000    0.6762160000000000 Co
   0.6765190000000000    0.6764740000000000    0.6764950000000000 Co
   0.3237290000000000    0.3232120000000000    0.0293830000000000 Co
   0.3235630000000000    0.0294940000000000    0.3232730000000000 Co
   0.0288050000000000    0.3235290000000000    0.3237560000000000 Co
   0.3238610000000000    0.3236260000000000    0.3236790000000000 Co
