Gd4 Fe20 P12
1.0
   3.6416729999904831    0.0000000000000000   -0.0000083256175292
   0.0000290903419759   10.2637769215182377   -0.0014215285514449
   0.0000000000000000    0.0000000000000000   11.7873260299999991
Gd Fe P
4 20 12
direct
   0.2500000000000000    0.5806570000000000    0.7046380000000000 Gd
   0.2500000000000000    0.9194480000000000    0.2046450000000000 Gd
   0.7500040000000000    0.4194550000000000    0.2954650000000000 Gd
   0.7500010000000000    0.0804660000000000    0.7955320000000000 Gd
   0.2499970000000000    0.7081760000000000    0.9885860000000000 Fe
   0.2499990000000000    0.7918330000000000    0.4885770000000000 Fe
   0.7500000000000000    0.2917540000000000    0.0113050000000000 Fe
   0.7499940000000000    0.2081970000000000    0.5112060000000000 Fe
   0.2500040000000000    0.4054660000000000    0.4896330000000000 Fe
   0.2500000000000000    0.0945470000000000    0.9897570000000000 Fe
   0.7499940000000000    0.5943990000000000    0.5095790000000000 Fe
   0.7499980000000001    0.9055600000000000    0.0098000000000000 Fe
   0.2499970000000000    0.2195020000000000    0.1766120000000000 Fe
   0.2499960000000000    0.2804640000000000    0.6766340000000000 Fe
   0.7500040000000000    0.7809780000000000    0.8234300000000000 Fe
   0.7500040000000000    0.7191270000000000    0.3232980000000000 Fe
   0.2499980000000000    0.8762930000000000    0.7015920000000000 Fe
   0.2500040000000000    0.6238220000000000    0.2015000000000000 Fe
   0.7500000000000000    0.1244170000000000    0.2986050000000000 Fe
   0.7500040000000000    0.3754600000000000    0.7988540000000000 Fe
   0.2500020000000000    0.4628120000000000    0.9326160000000000 Fe
   0.2500010000000000    0.0371430000000000    0.4323910000000000 Fe
   0.7500010000000000    0.5365870000000000    0.0679350000000000 Fe
   0.7499990000000000    0.9634370000000000    0.5678920000000000 Fe
   0.2500010000000000    0.4217300000000000    0.1132980000000000 P
   0.2500010000000000    0.0783020000000000    0.6132730000000000 P
   0.7499980000000001    0.5782090000000000    0.8874770000000000 P
   0.7500000000000000    0.9218330000000000    0.3871150000000000 P
   0.2500000000000000    0.2651800000000000    0.8714200000000000 P
   0.2500000000000000    0.2348660000000000    0.3714180000000000 P
   0.7500000000000000    0.7344260000000000    0.1283120000000000 P
   0.7499990000000000    0.7658490000000000    0.6282870000000000 P
   0.2500010000000000    0.6000150000000000    0.3959200000000000 P
   0.2500000000000000    0.8998150000000000    0.8958810000000000 P
   0.7500010000000000    0.3991780000000000    0.6036670000000000 P
   0.7500000000000000    0.1005990000000000    0.1038500000000000 P
