Gd2 Y2 Fe14
1.0
   4.9581228622119129    0.0000000000000000    1.0458826383094366
   2.3687500163767119    4.3556854415255195    1.0458823855766255
   0.0000000000000000    0.0000000000000000   12.2752073700000004
Gd Y Fe
2 2 14
direct
   0.8504690000000000    0.8504690000000000    0.4485950000000000 Gd
   0.1495310000000000    0.1495310000000000    0.5514050000000000 Gd
   0.9478270000000000    0.9478270000000000    0.1565190000000000 Y
   0.0521730000000000    0.0521730000000000    0.8434810000000000 Y
   0.5000000000000000    0.5000000000000000    0.5000000000000000 Fe
   0.7215120000000000    0.7215120000000000    0.8354650000000000 Fe
   0.2784880000000000    0.2784880000000000    0.1645350000000000 Fe
   0.6122400000000000    0.6122400000000000    0.1632810000000000 Fe
   0.3877600000000000    0.3877600000000000    0.8367190000000000 Fe
   0.0000000000000000    0.5000000000000000    0.0000000000000000 Fe
   0.5000000000000000    0.0000000000000000    0.0000000000000000 Fe
   0.5000000000000000    0.5000000000000000    0.0000000000000000 Fe
   0.3901770000000000    0.3901770000000000    0.3291090000000000 Fe
   0.8905370000000000    0.3901770000000000    0.3291090000000000 Fe
   0.3901770000000000    0.8905370000000000    0.3291090000000000 Fe
   0.6098230000000000    0.6098230000000000    0.6708910000000000 Fe
   0.1094630000000000    0.6098230000000000    0.6708910000000000 Fe
   0.6098230000000000    0.1094630000000000    0.6708910000000000 Fe
