Gd2 Fe14 Si3 C3
1.0
   6.3978611675628736    0.0000000000000000    0.7303138386314761
   0.6516895690903776    6.3645845215672825    0.7303132745750734
   0.0000000000000000    0.0000000000000000    6.4394080000000002
Gd Fe Si C
2 14 3 3
direct
   0.6535480000000000    0.6535480000000000    0.6535480000000000 Gd
   0.3462300000000000    0.3462300000000000    0.3462300000000000 Gd
   0.7153900000000000    0.2844690000000000    0.0001890000000000 Fe
   0.0001890000000000    0.7153900000000000    0.2844690000000000 Fe
   0.2844690000000000    0.0001890000000000    0.7153900000000000 Fe
   0.0001890000000000    0.2844690000000000    0.7153900000000000 Fe
   0.7153900000000000    0.0001890000000000    0.2844690000000000 Fe
   0.2844690000000000    0.7153900000000000    0.0001890000000000 Fe
   0.3407390000000000    0.8616160000000000    0.3407390000000000 Fe
   0.3407390000000000    0.3407390000000000    0.8616160000000000 Fe
   0.8616160000000000    0.3407390000000000    0.3407390000000000 Fe
   0.6590610000000000    0.1386410000000000    0.6590610000000000 Fe
   0.6590610000000000    0.6590610000000000    0.1386410000000000 Fe
   0.1386410000000000    0.6590610000000000    0.6590610000000000 Fe
   0.9031180000000000    0.9031180000000000    0.9031180000000000 Fe
   0.0970570000000000    0.0970570000000000    0.0970570000000000 Fe
   0.0000350000000000    0.0000350000000000    0.4999400000000000 Si
   0.4999400000000000    0.0000350000000000    0.0000350000000000 Si
   0.0000350000000000    0.4999400000000000    0.0000350000000000 Si
   0.4996490000000000    0.4996490000000000    0.0007850000000000 C
   0.0007850000000000    0.4996490000000000    0.4996490000000000 C
   0.4996490000000000    0.0007850000000000    0.4996490000000000 C
