Gd1 Al2 Fe8 Re2
1.0
   4.4329698220883005    0.0000000000000000   -1.7359241800930381
   2.2676840069659976    6.0770462999708199   -0.7372151205803348
   0.0000000000000000    0.0000000000000000    6.5281212899999996
Gd Al Fe Re
1 2 8 2
direct
   0.0000000000000000    0.0000000000000000    0.0000000000000000 Gd
   0.7127200000000000    0.7872800000000000    0.2127200000000000 Al
   0.2872800000000000    0.2127200000000000    0.7872800000000000 Al
   0.5000000000000000    0.7702280000000000    0.7702280000000000 Fe
   0.5000000000000000    0.2297720000000000    0.2297720000000000 Fe
   0.5000000000000000    0.0000000000000000    0.5000000000000000 Fe
   0.0000000000000000    0.0000000000000000    0.5000000000000000 Fe
   0.5000000000000000    0.5000000000000000    0.0000000000000000 Fe
   0.0000000000000000    0.5000000000000000    0.0000000000000000 Fe
   0.6388509999999999    0.3611490000000000    0.6388509999999999 Fe
   0.3611490000000000    0.6388509999999999    0.3611490000000000 Fe
   0.0000000000000000    0.3582900000000000    0.3582900000000000 Re
   0.0000000000000000    0.6417100000000000    0.6417100000000000 Re
