Gd1 Lu3 Fe20 P12
1.0
   3.6337310000000000    0.0000000000000000    0.0000000000000002
  -0.0000000000000006   10.2398387566975781   -0.0120016588415182
   0.0000000000000000    0.0000000000000000   11.7704689899999995
Gd Lu Fe P
1 3 20 12
direct
   0.2500000000000000    0.5803469999999999    0.7050050000000000 Gd
   0.2500000000000000    0.9201230000000000    0.2042410000000000 Lu
   0.7500000000000000    0.4194680000000000    0.2956070000000000 Lu
   0.7500000000000000    0.0801340000000000    0.7952500000000000 Lu
   0.2500000000000000    0.7090560000000000    0.9892339999999999 Fe
   0.2500000000000000    0.7911880000000000    0.4890980000000000 Fe
   0.7500000000000000    0.2912510000000000    0.0108550000000000 Fe
   0.7500000000000000    0.2083720000000000    0.5104170000000000 Fe
   0.2500000000000000    0.4054460000000000    0.4889520000000000 Fe
   0.2500000000000000    0.0939300000000000    0.9892150000000000 Fe
   0.7500000000000000    0.5939020000000000    0.5096380000000000 Fe
   0.7500000000000000    0.9061320000000000    0.0105760000000000 Fe
   0.2500000000000000    0.2193190000000000    0.1763860000000000 Fe
   0.2500000000000000    0.2795120000000000    0.6766610000000000 Fe
   0.7500000000000000    0.7808290000000000    0.8238310000000000 Fe
   0.7500000000000000    0.7198050000000000    0.3233410000000000 Fe
   0.2500000000000000    0.8769120000000000    0.7016360000000000 Fe
   0.2500000000000000    0.6249530000000000    0.2021500000000000 Fe
   0.7500000000000000    0.1242750000000000    0.2976660000000000 Fe
   0.7500000000000000    0.3748180000000000    0.7987649999999999 Fe
   0.2500000000000000    0.4624290000000000    0.9332850000000000 Fe
   0.2500000000000000    0.0369690000000000    0.4316010000000000 Fe
   0.7500000000000000    0.5370740000000001    0.0692240000000000 Fe
   0.7500000000000000    0.9636760000000000    0.5674690000000000 Fe
   0.2500000000000000    0.4220950000000000    0.1142300000000000 P
   0.2500000000000000    0.0779130000000000    0.6132390000000000 P
   0.7500000000000000    0.5778489999999999    0.8883130000000000 P
   0.7500000000000000    0.9222350000000000    0.3860530000000000 P
   0.2500000000000000    0.2639560000000000    0.8712290000000000 P
   0.2500000000000000    0.2356310000000000    0.3709670000000000 P
   0.7500000000000000    0.7364190000000000    0.1283530000000000 P
   0.7500000000000000    0.7655630000000000    0.6281820000000000 P
   0.2500000000000000    0.5994980000000000    0.3961070000000000 P
   0.2500000000000000    0.9002869999999999    0.8954760000000000 P
   0.7500000000000000    0.3987340000000000    0.6037260000000000 P
   0.7500000000000000    0.0999000000000000    0.1040200000000000 P
