Gd1 Y1 Fe14 Si3 C3
1.0
   6.3969487969091023    0.0000000000000000    0.7119092055045046
   0.6370757271911923    6.3651473768545781    0.7119098687048259
   0.0000000000000000    0.0000000000000000    6.4364406000000001
Gd Y Fe Si C
1 1 14 3 3
direct
   0.3471050000000000    0.3471050000000000    0.3471050000000000 Gd
   0.6520880000000000    0.6520880000000000    0.6520880000000000 Y
   0.7153980000000000    0.2841200000000000    0.0004580000000000 Fe
   0.0004580000000000    0.7153980000000000    0.2841200000000000 Fe
   0.2841200000000000    0.0004580000000000    0.7153980000000000 Fe
   0.0004580000000000    0.2841200000000000    0.7153980000000000 Fe
   0.7153980000000000    0.0004580000000000    0.2841200000000000 Fe
   0.2841200000000000    0.7153980000000000    0.0004580000000000 Fe
   0.3400970000000000    0.8631680000000000    0.3400970000000000 Fe
   0.3400970000000000    0.3400970000000000    0.8631680000000000 Fe
   0.8631680000000000    0.3400970000000000    0.3400970000000000 Fe
   0.6593790000000000    0.1380640000000000    0.6593790000000000 Fe
   0.6593790000000000    0.6593790000000000    0.1380640000000000 Fe
   0.1380640000000000    0.6593790000000000    0.6593790000000000 Fe
   0.9031750000000000    0.9031750000000000    0.9031750000000000 Fe
   0.0976440000000000    0.0976440000000000    0.0976440000000000 Fe
   0.9996540000000000    0.9996540000000000    0.5000930000000000 Si
   0.5000930000000000    0.9996540000000000    0.9996540000000000 Si
   0.9996540000000000    0.5000930000000000    0.9996540000000000 Si
   0.4991700000000000    0.4991700000000000    0.0021100000000000 C
   0.0021100000000000    0.4991700000000000    0.4991700000000000 C
   0.4991700000000000    0.0021100000000000    0.4991700000000000 C
