Gd1 Ta1 Ti1 Fe9
1.0
   4.6734428279452338    0.0000000000000000    6.9194345476497805
   2.1178216706941693    4.1660399883633819    6.9194353585212056
   0.0000000000000000    0.0000000000000000    8.3498273100000002
Gd Ta Ti Fe
1 1 1 9
direct
   0.0005710000000000    0.0005710000000000    0.0005710000000000 Gd
   0.8550280000000000    0.8550280000000000    0.8550280000000000 Ta
   0.1443290000000000    0.1443290000000000    0.1443290000000000 Ti
   0.4112950000000000    0.4112950000000000    0.9184800000000000 Fe
   0.9184800000000000    0.4112950000000000    0.4112950000000000 Fe
   0.5882470000000000    0.0824120000000000    0.5882470000000000 Fe
   0.5882470000000000    0.5882470000000000    0.0824120000000000 Fe
   0.4112950000000000    0.9184800000000000    0.4112950000000000 Fe
   0.0824120000000000    0.5882470000000000    0.5882470000000000 Fe
   0.3335360000000000    0.3335360000000000    0.3335360000000000 Fe
   0.6666666666666666    0.6666666666666666    0.6666666666666666 Fe
   0.4998470000000000    0.4998470000000000    0.4998470000000000 Fe
