Gd4 Fe18 P12 Ru2
1.0
   3.6848160000000001    0.0000000000000000    0.0000000000000002
  -0.0000000000000006   10.3437739999999998    0.0000000000000006
   0.0000000000000000    0.0000000000000000   11.8140049999999999
Gd Fe P Ru
4 18 12 2
direct
   0.2500000000000000    0.5817880000000000    0.7034240000000000 Gd
   0.2500000000000000    0.9182120000000000    0.2034240000000000 Gd
   0.7500000000000000    0.4193740000000000    0.2951800000000000 Gd
   0.7500000000000000    0.0806260000000000    0.7951800000000000 Gd
   0.7500000000000000    0.2913050000000000    0.0113820000000000 Fe
   0.7500000000000000    0.2086950000000000    0.5113820000000000 Fe
   0.2500000000000000    0.4035390000000000    0.4904280000000000 Fe
   0.2500000000000000    0.0964610000000000    0.9904280000000000 Fe
   0.7500000000000000    0.5933730000000000    0.5103590000000000 Fe
   0.7500000000000000    0.9066270000000000    0.0103590000000000 Fe
   0.2500000000000000    0.2192850000000000    0.1760560000000000 Fe
   0.2500000000000000    0.2807150000000000    0.6760560000000000 Fe
   0.7500000000000000    0.7801800000000000    0.8247580000000000 Fe
   0.7500000000000000    0.7198200000000000    0.3247580000000000 Fe
   0.2500000000000000    0.8782770000000000    0.7034450000000000 Fe
   0.2500000000000000    0.6217230000000000    0.2034450000000000 Fe
   0.7500000000000000    0.1253850000000000    0.2974790000000000 Fe
   0.7500000000000000    0.3746150000000000    0.7974790000000000 Fe
   0.2500000000000000    0.4604610000000000    0.9320310000000001 Fe
   0.2500000000000000    0.0395390000000000    0.4320310000000000 Fe
   0.7500000000000000    0.5345030000000000    0.0668440000000000 Fe
   0.7500000000000000    0.9654970000000000    0.5668440000000000 Fe
   0.2500000000000000    0.4225110000000000    0.1130220000000000 P
   0.2500000000000000    0.0774890000000000    0.6130220000000000 P
   0.7500000000000000    0.5743920000000000    0.8857070000000000 P
   0.7500000000000000    0.9256080000000000    0.3857070000000000 P
   0.2500000000000000    0.2650600000000000    0.8707350000000000 P
   0.2500000000000000    0.2349400000000000    0.3707350000000000 P
   0.7500000000000000    0.7313890000000000    0.1324470000000000 P
   0.7500000000000000    0.7686110000000000    0.6324470000000000 P
   0.2500000000000000    0.5962620000000000    0.3952660000000000 P
   0.2500000000000000    0.9037380000000000    0.8952660000000000 P
   0.7500000000000000    0.3995890000000000    0.6029890000000000 P
   0.7500000000000000    0.1004110000000000    0.1029890000000000 P
   0.2500000000000000    0.7069310000000000    0.9884470000000000 Ru
   0.2500000000000000    0.7930690000000000    0.4884470000000000 Ru
