Gd1 Zr2 Fe7 Co2
1.0
   4.7913150487201825    0.0000000000000000    1.4924520889743722
   2.1735206242942970    4.2321051408691268    1.4593678229179172
   0.0000000000000000    0.0000000000000000    8.4371592999999994
Gd Zr Fe Co
1 2 7 2
direct
   0.9984890000000000    0.9983200000000000    0.0047020000000000 Gd
   0.1399760000000000    0.1421260000000000    0.5779200000000000 Zr
   0.8569630000000000    0.8586160000000000    0.4274600000000000 Zr
   0.5867910000000000    0.0792060000000000    0.7472110000000000 Fe
   0.9182660000000000    0.4151490000000000    0.2514870000000000 Fe
   0.4150990000000000    0.4151490000000000    0.2514870000000000 Fe
   0.4151450000000000    0.9183160000000000    0.2513960000000000 Fe
   0.3341370000000000    0.3351980000000000    0.9965280000000000 Fe
   0.6675930000000000    0.6681840000000000    0.9966300000000000 Fe
   0.4992250000000000    0.5007440000000000    0.5008070000000000 Fe
   0.0826160000000000    0.5844960000000000    0.7471860000000000 Co
   0.5857010000000000    0.5844960000000000    0.7471860000000000 Co
