Gd2 Al2 Fe14 Si1 C3
1.0
   6.3996141586786308    0.0000000000000000    0.7164853337337880
   0.6363978432704073    6.4014229255498298    0.7979885379590057
   0.0000000000000000    0.0000000000000000    6.4822826200000003
Gd Al Fe Si C
2 2 14 1 3
direct
   0.6570110000000000    0.6568940000000000    0.6568940000000000 Gd
   0.3429890000000000    0.3431060000000000    0.3431060000000000 Gd
   0.0000000000000000    0.0000000000000000    0.5000000000000000 Al
   0.0000000000000000    0.5000000000000000    0.0000000000000000 Al
   0.7110980000000000    0.2822350000000000    0.0005700000000000 Fe
   0.0000000000000000    0.7150650000000000    0.2849350000000000 Fe
   0.2889020000000000    0.9994300000000000    0.7177650000000000 Fe
   0.0000000000000000    0.2849350000000000    0.7150650000000000 Fe
   0.7110980000000000    0.0005700000000000    0.2822350000000000 Fe
   0.2889020000000000    0.7177650000000000    0.9994300000000000 Fe
   0.3460710000000000    0.8556200000000000    0.3407580000000000 Fe
   0.3460710000000000    0.3407580000000000    0.8556200000000000 Fe
   0.8495030000000000    0.3453480000000000    0.3453480000000000 Fe
   0.6539290000000000    0.1443800000000000    0.6592420000000000 Fe
   0.6539290000000000    0.6592420000000000    0.1443800000000000 Fe
   0.1504970000000000    0.6546520000000000    0.6546520000000000 Fe
   0.9037140000000000    0.9069469999999999    0.9069469999999999 Fe
   0.0962860000000000    0.0930530000000000    0.0930530000000000 Fe
   0.5000000000000000    0.0000000000000000    0.0000000000000000 Si
   0.5000000000000000    0.5000000000000000    0.0000000000000000 C
   0.0000000000000000    0.5000000000000000    0.5000000000000000 C
   0.5000000000000000    0.0000000000000000    0.5000000000000000 C
