Gd2 Ga3 Fe14 C2
1.0
   6.4356835789603251    0.0000000000000000    0.7240203139583997
   0.6206862912730111    6.4056821127936425    0.7240186396481083
   0.0000000000000000    0.0000000000000000    6.4898106999999996
Gd Ga Fe C
2 3 14 2
direct
   0.3421010000000000    0.3421010000000000    0.3412850000000000 Gd
   0.6585259999999999    0.6585259999999999    0.6581300000000000 Gd
   0.6532900000000000    0.6532900000000000    0.1490020000000000 Ga
   0.3469360000000000    0.3469360000000000    0.8509210000000000 Ga
   0.9998590000000001    0.9998590000000001    0.5000890000000000 Ga
   0.6559290000000000    0.1446760000000000    0.6630280000000000 Fe
   0.1446760000000000    0.6559290000000000    0.6630280000000000 Fe
   0.3443480000000000    0.8553809999999999    0.3373050000000000 Fe
   0.8553809999999999    0.3443480000000000    0.3373050000000000 Fe
   0.0952160000000000    0.0952160000000000    0.0927610000000000 Fe
   0.9042730000000000    0.9042730000000000    0.9071250000000000 Fe
   0.9996550000000000    0.5001770000000000    0.9996990000000000 Fe
   0.5001770000000000    0.9996550000000000    0.9996990000000000 Fe
   0.7165930000000000    0.2836580000000000    0.9996490000000000 Fe
   0.2899730000000000    0.9945390000000000    0.7166270000000000 Fe
   0.0051220000000000    0.7100919999999999    0.2835220000000000 Fe
   0.7100919999999999    0.0051220000000000    0.2835220000000000 Fe
   0.9945390000000000    0.2899730000000000    0.7166270000000000 Fe
   0.2836580000000000    0.7165930000000000    0.9996490000000000 Fe
   0.5004890000000000    0.9991670000000000    0.5005130000000000 C
   0.9991670000000000    0.5004890000000000    0.5005130000000000 C
