Gd6 Co23
1.0
   7.1824011190350099    0.0000000000000000    4.1432737613933739
  -4.7862554512120727    6.7709200804319929   -0.0000000188134505
   0.0000000000000000    0.0000000000000000    8.2970138900000006
Gd Co
6 23
direct
   0.5738750000000000    0.2869380000000000    0.7130430000000000 Gd
   0.0000190000000000    0.7130810000000000    0.7130430000000000 Gd
   0.0000190000000000    0.2869380000000000    0.7130430000000000 Gd
   0.4265400000000000    0.7132710000000000    0.2866260000000000 Gd
   0.0001040000000000    0.2868340000000000    0.2866260000000000 Gd
   0.0001040000000000    0.7132710000000000    0.2866260000000000 Gd
   0.6459009999999999    0.3229510000000000    0.0311460000000000 Co
   0.3537650000000000    0.3234020000000000    0.3228320000000000 Co
   0.3537650000000000    0.0303640000000000    0.3228320000000000 Co
   0.6468040000000000    0.3234020000000000    0.3228320000000000 Co
   0.3536060000000000    0.6768030000000000    0.9695900000000000 Co
   0.6462350000000000    0.6768110000000001    0.6769550000000000 Co
   0.6462350000000000    0.9694240000000000    0.6769550000000000 Co
   0.3536220000000000    0.6768110000000001    0.6769550000000000 Co
   0.0001210000000000    0.0000600000000000    0.9998190000000000 Co
   0.2470280000000000    0.1235140000000000    0.6294580000000000 Co
   0.7539560000000000    0.1226990000000000    0.1233450000000000 Co
   0.7539560000000000    0.6312590000000000    0.1233450000000000 Co
   0.2453960000000000    0.1226990000000000    0.1233450000000000 Co
   0.7536770000000000    0.8768380000000000    0.3694840000000000 Co
   0.2458020000000000    0.8767210000000000    0.8774770000000000 Co
   0.2458020000000000    0.3690800000000000    0.8774770000000000 Co
   0.7534430000000000    0.8767210000000000    0.8774770000000000 Co
   0.9999640000000000    0.9999820000000000    0.4991550000000000 Co
   0.5008620000000000    0.5008810000000000    0.4991550000000000 Co
   0.5008620000000000    0.9999820000000000    0.4991550000000000 Co
   0.9999670000000001    0.4999830000000000    0.0007340000000000 Co
   0.4992820000000000    0.9992990000000000    0.0007340000000000 Co
   0.4992820000000000    0.4999830000000000    0.0007340000000000 Co
