Gd1 Al2 Fe10
1.0
   4.4264621383657099    0.0000000000000000   -1.7707969780753283
   2.2639363555260621    5.9571247489629364   -0.7586498165692656
   0.0000000000000000    0.0000000000000000    6.4178105199999997
Gd Al Fe
1 2 10
direct
   0.0000000000000000    0.0000000000000000    0.0000000000000000 Gd
   0.7268970000000000    0.7731030000000000    0.2268970000000000 Al
   0.2731030000000000    0.2268970000000000    0.7731030000000000 Al
   0.6393990000000001    0.3606010000000000    0.6393990000000001 Fe
   0.3606010000000000    0.6393990000000001    0.3606010000000000 Fe
   0.0000000000000000    0.3530520000000000    0.3530520000000000 Fe
   0.0000000000000000    0.6469480000000000    0.6469480000000000 Fe
   0.5000000000000000    0.7791360000000001    0.7791360000000001 Fe
   0.5000000000000000    0.2208640000000000    0.2208640000000000 Fe
   0.5000000000000000    0.0000000000000000    0.5000000000000000 Fe
   0.0000000000000000    0.0000000000000000    0.5000000000000000 Fe
   0.5000000000000000    0.5000000000000000    0.0000000000000000 Fe
   0.0000000000000000    0.5000000000000000    0.0000000000000000 Fe
