Gd3 Sc1 Fe14
1.0
   4.9235074485550792    0.0000000000000000    1.0324768520149548
   2.3660181683042456    4.3177413091121011    1.0324768274984690
   0.0000000000000000    0.0000000000000000   12.2458369999999999
Gd Sc Fe
3 1 14
direct
   0.0522930000000000    0.0522930000000000    0.8427310000000000 Gd
   0.9469280000000000    0.9469280000000000    0.1603270000000000 Gd
   0.1501160000000000    0.1501160000000000    0.5482260000000000 Gd
   0.8509470000000000    0.8509470000000000    0.4475040000000000 Sc
   0.5000740000000000    0.5000740000000000    0.4990170000000000 Fe
   0.2783870000000000    0.2783870000000000    0.1653800000000000 Fe
   0.7215140000000000    0.7215140000000000    0.8352450000000000 Fe
   0.3876540000000000    0.3876540000000000    0.8367370000000000 Fe
   0.6124290000000000    0.6124290000000000    0.1638800000000000 Fe
   0.5000540000000000    0.5000540000000000    0.0004370000000000 Fe
   0.5001230000000000    0.9999850000000000    0.0003870000000000 Fe
   0.9999850000000000    0.5001230000000000    0.0003870000000000 Fe
   0.1088570000000000    0.6105780000000000    0.6688330000000000 Fe
   0.6106030000000000    0.6106030000000000    0.6689770000000000 Fe
   0.6105780000000000    0.1088570000000000    0.6688330000000000 Fe
   0.8904660000000000    0.3894760000000000    0.3310870000000000 Fe
   0.3895150000000000    0.3895150000000000    0.3309230000000000 Fe
   0.3894760000000000    0.8904660000000000    0.3310870000000000 Fe
