Gd1 Sc4 Fe18 Co1 P12
1.0
  11.8052156000000004    0.0000000000000000    0.0000000000000007
  -5.8919552193455740   10.2174598341180811    0.0000000000000007
   0.0000000000000000    0.0000000000000000    3.6342279999999998
Gd Sc Fe Co P
1 4 18 1 12
direct
   0.0000000000000000    0.8163780000000000    0.5000000000000000 Gd
   0.6666666666666666    0.3328770000000000    0.0000000000000000 Sc
   0.3333333333333333    0.6662390000000000    0.0000000000000000 Sc
   0.1848340000000000    0.1850380000000000    0.5000000000000000 Sc
   0.8151659999999999    0.0002040000000000    0.5000000000000000 Sc
   0.8184420000000000    0.1966680000000000    0.0000000000000000 Fe
   0.8010890000000001    0.6197670000000000    0.0000000000000000 Fe
   0.3795120000000000    0.1826030000000000    0.0000000000000000 Fe
   0.1989110000000000    0.8186790000000000    0.0000000000000000 Fe
   0.6204880000000000    0.8030920000000000    0.0000000000000000 Fe
   0.1815580000000000    0.3782270000000000    0.0000000000000000 Fe
   0.5560820000000000    0.5566330000000000    0.0000000000000000 Fe
   0.4439180000000000    0.0005510000000000    0.0000000000000000 Fe
   0.0000000000000000    0.4422970000000000    0.0000000000000000 Fe
   0.6408070000000000    0.1232710000000000    0.5000000000000000 Fe
   0.8762660000000000    0.5160390000000000    0.5000000000000000 Fe
   0.4829960000000000    0.3596730000000000    0.5000000000000000 Fe
   0.1237340000000000    0.6397730000000000    0.5000000000000000 Fe
   0.5170040000000000    0.8766780000000000    0.5000000000000000 Fe
   0.3591930000000000    0.4824640000000000    0.5000000000000000 Fe
   0.7145590000000001    0.7161010000000000    0.5000000000000000 Fe
   0.2854410000000000    0.0015420000000000    0.5000000000000000 Fe
   0.0000000000000000    0.2831770000000000    0.5000000000000000 Fe
   0.0000000000000000    0.0014600000000000    0.0000000000000000 Co
   0.3675870000000000    0.3678570000000000    0.0000000000000000 P
   0.6324130000000000    0.0002700000000000    0.0000000000000000 P
   0.0000000000000000    0.6301949999999999    0.0000000000000000 P
   0.8321280000000000    0.3129320000000000    0.5000000000000000 P
   0.6859950000000000    0.5182870000000001    0.5000000000000000 P
   0.4825400000000000    0.1682870000000000    0.5000000000000000 P
   0.3140050000000000    0.8322929999999999    0.5000000000000000 P
   0.5174600000000000    0.6857470000000000    0.5000000000000000 P
   0.1678720000000000    0.4808030000000000    0.5000000000000000 P
   0.8162600000000000    0.8190060000000000    0.0000000000000000 P
   0.1837400000000000    0.0027460000000000    0.0000000000000000 P
   0.0000000000000000    0.1821470000000000    0.0000000000000000 P
