Gd1 Y1 Co17
1.0
   6.2314954456428646    0.0000000000000000    0.7531064532790631
   0.6675684385277213    6.1956346717265580    0.7531059620200000
   0.0000000000000000    0.0000000000000000    6.2768380700000002
Gd Y Co
1 1 17
direct
   0.6550170000000000    0.6550170000000000    0.6550170000000000 Gd
   0.3442090000000000    0.3442090000000000    0.3442090000000000 Y
   0.7120000000000000    0.2884680000000000    0.9999200000000000 Co
   0.9999200000000000    0.7120000000000000    0.2884680000000000 Co
   0.2884680000000000    0.9999200000000000    0.7120000000000000 Co
   0.9999200000000000    0.2884680000000000    0.7120000000000000 Co
   0.7120000000000000    0.9999200000000000    0.2884680000000000 Co
   0.2884680000000000    0.7120000000000000    0.9999200000000000 Co
   0.3459630000000000    0.3459630000000000    0.8500490000000001 Co
   0.8500490000000001    0.3459630000000000    0.3459630000000000 Co
   0.3459630000000000    0.8500490000000001    0.3459630000000000 Co
   0.6542260000000000    0.6542260000000000    0.1484500000000000 Co
   0.1484500000000000    0.6542260000000000    0.6542260000000000 Co
   0.6542260000000000    0.1484500000000000    0.6542260000000000 Co
   0.0007330000000000    0.0007330000000000    0.4998420000000000 Co
   0.4998420000000000    0.0007330000000000    0.0007330000000000 Co
   0.0007330000000000    0.4998420000000000    0.0007330000000000 Co
   0.9036120000000000    0.9036120000000000    0.9036120000000000 Co
   0.0961980000000000    0.0961980000000000    0.0961980000000000 Co
