Gd1 Lu1 Sc1 Fe9
1.0
   4.7998696085958494    0.0000000000000000    1.4897348980461247
   2.1687503977351232    4.2819703868426409    1.4897351275202326
   0.0000000000000000    0.0000000000000000    8.4773654399999998
Gd Lu Sc Fe
1 1 1 9
direct
   0.9993180000000000    0.9993180000000000    0.0020470000000000 Gd
   0.1432140000000000    0.1432140000000000    0.5703589999999999 Lu
   0.8575630000000000    0.8575630000000000    0.4273100000000000 Sc
   0.0821070000000000    0.5844530000000000    0.7489860000000000 Fe
   0.5844530000000000    0.5844530000000000    0.7489860000000000 Fe
   0.5844530000000000    0.0821070000000000    0.7489860000000000 Fe
   0.9173750000000001    0.4157460000000000    0.2511350000000000 Fe
   0.4157460000000000    0.4157460000000000    0.2511350000000000 Fe
   0.4157460000000000    0.9173750000000001    0.2511350000000000 Fe
   0.3327750000000000    0.3327750000000000    0.0016750000000000 Fe
   0.6671310000000000    0.6671310000000000    0.9986040000000000 Fe
   0.5001200000000000    0.5001200000000000    0.4996400000000000 Fe
