Gd6 Ta1 Co22
1.0
   7.2331119994765745    0.0000000000000000    4.1760390000704630
   2.4110380010569283    6.8194420031716385    4.1760390022140710
   0.0000000000000000    0.0000000000000000    8.3520769999999995
Gd Ta Co
6 1 22
direct
   0.7871840000000000    0.2128160000000000    0.7871840000000000 Gd
   0.2128160000000000    0.2128160000000000    0.7871840000000000 Gd
   0.7871840000000000    0.7871840000000000    0.2128160000000000 Gd
   0.7871840000000000    0.2128160000000000    0.2128160000000000 Gd
   0.2128160000000000    0.7871840000000000    0.7871840000000000 Gd
   0.2128160000000000    0.7871840000000000    0.2128160000000000 Gd
   0.5000000000000000    0.5000000000000000    0.5000000000000000 Ta
   0.8230790000000000    0.8230790000000000    0.8230790000000000 Co
   0.4692370000000000    0.1769210000000000    0.1769210000000000 Co
   0.1769210000000000    0.1769210000000000    0.4692370000000000 Co
   0.1769210000000000    0.4692370000000000    0.1769210000000000 Co
   0.8230790000000000    0.8230790000000000    0.5307630000000000 Co
   0.8230790000000000    0.5307630000000000    0.8230790000000000 Co
   0.0000000000000000    0.5000000000000000    0.0000000000000000 Co
   0.5000000000000000    0.0000000000000000    0.0000000000000000 Co
   0.0000000000000000    0.5000000000000000    0.5000000000000000 Co
   0.5000000000000000    0.0000000000000000    0.5000000000000000 Co
   0.0000000000000000    0.0000000000000000    0.5000000000000000 Co
   0.5000000000000000    0.5000000000000000    0.0000000000000000 Co
   0.3746970000000000    0.3746970000000000    0.3746970000000000 Co
   0.1240920000000000    0.6253030000000001    0.6253020000000000 Co
   0.6253020000000000    0.1240920000000000    0.6253020000000000 Co
   0.6253030000000001    0.6253030000000001    0.1240920000000000 Co
   0.3746980000000000    0.8759080000000000    0.3746970000000000 Co
   0.3746980000000000    0.3746970000000000    0.8759070000000000 Co
   0.8759070000000000    0.3746980000000000    0.3746970000000000 Co
   0.6253030000000001    0.6253030000000001    0.6253020000000000 Co
   0.1769210000000000    0.1769210000000000    0.1769210000000000 Co
   0.5307630000000000    0.8230790000000000    0.8230790000000000 Co
