Gd1 Hf1 Ta1 Fe9
1.0
   4.7328063405293443    0.0000000000000000    1.4599320487684049
   2.1412310973998236    4.2207343256472445    1.4599328199027053
   0.0000000000000000    0.0000000000000000    8.4013724300000003
Gd Hf Ta Fe
1 1 1 9
direct
   0.0003570000000000    0.0003570000000000    0.9989280000000000 Gd
   0.8562900000000000    0.8562900000000000    0.4311300000000000 Hf
   0.1434710000000000    0.1434710000000000    0.5695860000000000 Ta
   0.0824660000000000    0.5876930000000000    0.7421460000000000 Fe
   0.5876930000000000    0.5876930000000000    0.7421460000000000 Fe
   0.5876930000000000    0.0824660000000000    0.7421460000000000 Fe
   0.9178310000000000    0.4121430000000000    0.2578840000000000 Fe
   0.4121430000000000    0.4121430000000000    0.2578840000000000 Fe
   0.4121430000000000    0.9178310000000000    0.2578840000000000 Fe
   0.3332670000000000    0.3332670000000000    0.0002000000000000 Fe
   0.6667459999999999    0.6667459999999999    0.9997610000000000 Fe
   0.4998980000000000    0.4998980000000000    0.5003040000000000 Fe
