Gd1 Ta2 Be3 Fe6
1.0
   4.5942667532833834    0.0000000000000000    6.4916608675455203
   2.0647476468006900    4.1041563119492945    6.4916597674662242
   0.0000000000000000    0.0000000000000000    7.9529213700000003
Gd Ta Be Fe
1 2 3 6
direct
   0.0000000000000000    0.0000000000000000    0.0000000000000000 Gd
   0.1422070000000000    0.1422070000000000    0.1422070000000000 Ta
   0.8577930000000000    0.8577930000000000    0.8577930000000000 Ta
   0.5000000000000000    0.5000000000000000    0.5000000000000000 Be
   0.3331960000000000    0.3331960000000000    0.3331960000000000 Be
   0.6668040000000000    0.6668040000000000    0.6668040000000000 Be
   0.0824500000000000    0.5848640000000001    0.5848640000000001 Fe
   0.5848640000000001    0.5848640000000001    0.0824500000000000 Fe
   0.5848640000000001    0.0824500000000000    0.5848640000000001 Fe
   0.4151360000000000    0.9175500000000000    0.4151360000000000 Fe
   0.9175500000000000    0.4151360000000000    0.4151360000000000 Fe
   0.4151360000000000    0.4151360000000000    0.9175500000000000 Fe
