Gd1 Sc2 Co9
1.0
   4.6599693209064155    0.0000000000000000   -1.4051722522300159
  -2.1181258778268437    4.1507654644777210    1.4051713431180746
   0.0000000000000000    0.0000000000000000    8.4295096600000008
Gd Sc Co
1 2 9
direct
   0.0000000000000000    0.0000000000000000    0.0000000000000000 Gd
   0.1410250000000000    0.8589760000000000    0.4230760000000000 Sc
   0.8589750000000000    0.1410250000000000    0.5769230000000000 Sc
   0.3351290000000000    0.6648740000000000    0.0053830000000000 Co
   0.0788650000000000    0.4135830000000000    0.2516970000000000 Co
   0.5864160000000000    0.4135830000000000    0.2516970000000000 Co
   0.5864160000000000    0.9211360000000000    0.2516970000000000 Co
   0.4999990000000000    0.4999990000000000    0.5000010000000000 Co
   0.4135840000000000    0.0788650000000000    0.7483030000000001 Co
   0.4135840000000000    0.5864180000000000    0.7483030000000001 Co
   0.9211380000000000    0.5864170000000000    0.7483030000000001 Co
   0.6648740000000000    0.3351270000000000    0.9946180000000000 Co
