Gd2 Lu2 Fe12 Co2
1.0
   4.9562000027535982    0.0000000000000000    1.0350330003182897
   2.3723999998966656    4.3599570002172552    1.0236619996406329
   0.0000000000000000    0.0000000000000000   12.3837790000000005
Gd Lu Fe Co
2 2 12 2
direct
   0.9463330000000000    0.9470000000000000    0.1603320000000000 Gd
   0.0534350000000000    0.0523190000000000    0.8408160000000000 Gd
   0.8494280000000000    0.8507020000000000    0.4504510000000000 Lu
   0.1492850000000000    0.1506870000000000    0.5507300000000001 Lu
   0.7224230000000000    0.7209950000000001    0.8341800000000000 Fe
   0.2774180000000000    0.2789880000000000    0.1661560000000000 Fe
   0.6113740000000000    0.6119400000000000    0.1653050000000000 Fe
   0.3891320000000000    0.3870040000000000    0.8347460000000000 Fe
   0.0002030000000000    0.4996060000000000    0.0002260000000000 Fe
   0.5001490000000000    0.9997000000000000    0.0000050000000000 Fe
   0.4999700000000000    0.4996000000000000    0.0002280000000000 Fe
   0.3890310000000000    0.3889800000000000    0.3310670000000000 Fe
   0.8909250000000000    0.3889840000000000    0.3310700000000000 Fe
   0.3884030000000000    0.8921880000000000    0.3310040000000000 Fe
   0.6105790000000000    0.6112370000000000    0.6682660000000000 Fe
   0.1099230000000000    0.6112360000000000    0.6682670000000001 Fe
   0.5001139999999999    0.5011800000000000    0.4985840000000000 Co
   0.6118740000000000    0.1076590000000000    0.6685700000000000 Co
