Gd1 Ga1 Fe4
1.0
   4.3110987087502410    0.0000000000000000    2.4890140000000005
   1.4370329029167472    4.0645428417624858    2.4890140000000005
   0.0000000000000000    0.0000000000000000    4.9780280000000001
Gd Ga Fe
1 1 4
direct
   0.2500000000000000    0.2500000000000000    0.2500000000000000 Gd
   0.0000000000000000    0.0000000000000000    0.0000000000000000 Ga
   0.6257660000000000    0.6257650000000000    0.1227040000000000 Fe
   0.6257660000000000    0.1227040000000000    0.6257650000000000 Fe
   0.6257660000000000    0.6257650000000000    0.6257650000000000 Fe
   0.1227050000000000    0.6257650000000000    0.6257650000000000 Fe
