SYSTEM = Co2Fe16Gd5Y_sub ferri RE-TM exchange
PREC = Accurate
ENCUT = 520
EDIFF = 1E-05
NELM = 60
ALGO = Normal
ISMEAR = 1
SIGMA = 0.2
ISPIN = 2
MAGMOM = 5*-7.00  1*0.00  16*1.69  2*1.09
LORBIT = 11
LASPH = .TRUE.
LMAXMIX = 6
LDAU = .TRUE.
LDAUTYPE = 2
LDAUL = 3 -1 -1 -1
LDAUU = 6.70 0.00 0.00 0.00
LDAUJ = 0.70 0.00 0.00 0.00
LDAUPRINT = 1
LREAL = .FALSE.
LWAVE = .TRUE.
LCHARG = .TRUE.
KPAR = 4
IBRION = -1
NSW = 0
AMIX = 0.2
BMIX = 0.0001
AMIX_MAG = 0.8
BMIX_MAG = 0.0001
ISTART = 0
ICHARG = 2
NUPDOWN = 6
