Gd2 Co17
1.0
   6.2241844919309344    0.0000000000000000    0.7535064351685659
   0.6677858555953312    6.1882583058449852    0.7535063854259989
   0.0000000000000000    0.0000000000000000    6.2696280599999996
Gd Co
2 17
direct
   0.6551490000000000    0.6551490000000000    0.6551490000000000 Gd
   0.3442770000000000    0.3442770000000000    0.3442770000000000 Gd
   0.7120310000000000    0.2884260000000000    0.9998760000000000 Co
   0.9998760000000000    0.7120310000000000    0.2884260000000000 Co
   0.2884260000000000    0.9998760000000000    0.7120310000000000 Co
   0.9998760000000000    0.2884260000000000    0.7120310000000000 Co
   0.7120310000000000    0.9998760000000000    0.2884260000000000 Co
   0.2884260000000000    0.7120310000000000    0.9998760000000000 Co
   0.3459140000000000    0.3459140000000000    0.8500740000000000 Co
   0.8500740000000000    0.3459140000000000    0.3459140000000000 Co
   0.3459140000000000    0.8500740000000000    0.3459140000000000 Co
   0.6543170000000000    0.6543170000000000    0.1485310000000000 Co
   0.1485310000000000    0.6543170000000000    0.6543170000000000 Co
   0.6543170000000000    0.1485310000000000    0.6543170000000000 Co
   0.0005950000000000    0.0005950000000000    0.4998810000000000 Co
   0.4998810000000000    0.0005950000000000    0.0005950000000000 Co
   0.0005950000000000    0.4998810000000000    0.0005950000000000 Co
   0.9036120000000000    0.9036120000000000    0.9036120000000000 Co
   0.0961540000000000    0.0961540000000000    0.0961540000000000 Co
