Gd2 Cr1 Fe11 P7
1.0
   8.9459790500000000    0.0000000000000000    0.0000000000000005
  -4.4646463614322593    7.7973843720828837    0.0000000000000006
   0.0000000000000000    0.0000000000000000    3.6199780000000001
Gd Cr Fe P
2 1 11 7
direct
   0.3322270000000000    0.6632630000000000    0.0000000000000000 Gd
   0.6670910000000000    0.3348790000000000    0.5000000000000000 Gd
   0.2153880000000000    0.0996590000000000    0.5000000000000000 Cr
   0.4294030000000000    0.0532600000000000    0.0000000000000000 Fe
   0.1525780000000000    0.2725470000000000    0.0000000000000000 Fe
   0.9441820000000000    0.3715950000000000    0.0000000000000000 Fe
   0.6308930000000000    0.5742760000000000    0.0000000000000000 Fe
   0.1183290000000000    0.8450740000000000    0.0000000000000000 Fe
   0.7222990000000000    0.8811520000000000    0.0000000000000000 Fe
   0.9043780000000000    0.1213850000000000    0.5000000000000000 Fe
   0.3848730000000000    0.4334580000000000    0.5000000000000000 Fe
   0.0486190000000000    0.6145020000000000    0.5000000000000000 Fe
   0.8808760000000000    0.7854330000000000    0.5000000000000000 Fe
   0.5667910000000000    0.9525220000000000    0.5000000000000000 Fe
   0.7085990000000000    0.1187570000000000    0.0000000000000000 P
   0.4123820000000000    0.3005690000000000    0.0000000000000000 P
   0.8876980000000000    0.5897630000000000    0.0000000000000000 P
   0.9957220000000000    0.9989860000000000    0.0000000000000000 P
   0.1133640000000000    0.4016270000000000    0.5000000000000000 P
   0.5981820000000000    0.7077920000000000    0.5000000000000000 P
   0.2861270000000000    0.8795010000000000    0.5000000000000000 P
