Gd2 Fe17 C1
1.0
   6.3291480649038157    0.0000000000000000    0.7326079993667326
   0.6560774503984719    6.2455556194821362    0.7363999280467701
   0.0000000000000000    0.0000000000000000    6.3714072000000002
Gd Fe C
2 17 1
direct
   0.6573080000000000    0.6480100000000000    0.6573080000000000 Gd
   0.3426920000000000    0.3519900000000000    0.3426920000000000 Gd
   0.9029430000000001    0.9018370000000000    0.9029430000000001 Fe
   0.0970570000000000    0.0981630000000000    0.0970570000000000 Fe
   0.3457460000000000    0.8503490000000000    0.3457460000000000 Fe
   0.8520780000000000    0.3486390000000000    0.3426980000000000 Fe
   0.3426980000000000    0.3486390000000000    0.8520780000000000 Fe
   0.6542540000000000    0.1496510000000000    0.6542540000000000 Fe
   0.1479220000000000    0.6513610000000000    0.6573020000000001 Fe
   0.6573020000000001    0.6513610000000000    0.1479220000000000 Fe
   0.7192840000000000    0.0000000000000000    0.2807160000000000 Fe
   0.9971160000000000    0.2847740000000000    0.7143450000000000 Fe
   0.2856550000000000    0.7152260000000000    0.0028840000000000 Fe
   0.0028840000000000    0.7152260000000000    0.2856550000000000 Fe
   0.7143450000000000    0.2847740000000000    0.9971160000000000 Fe
   0.2807160000000000    0.0000000000000000    0.7192840000000000 Fe
   0.0000000000000000    0.5000000000000000    0.0000000000000000 Fe
   0.5000000000000000    0.0000000000000000    0.0000000000000000 Fe
   0.0000000000000000    0.0000000000000000    0.5000000000000000 Fe
   0.5000000000000000    0.0000000000000000    0.5000000000000000 C
