Gd1 Lu1 Fe6 Si2 B2
1.0
   5.1177799999999998    0.0000000000000000    0.0000000000000003
  -2.5588900011303641    4.4342780012437366    0.0000000000000003
   0.0000000000000000    0.0000000000000000    6.5370699999999999
Gd Lu Fe Si B
1 1 6 2 2
direct
   0.9999810000000000    0.0000000000000000    0.0000000000000000 Gd
   0.9999840000000000    0.0000000000000000    0.5000000000000000 Lu
   0.4999830000000000    0.0000000000000000    0.2829350000000000 Fe
   0.4999840000000000    0.5000010000000000    0.2828980000000000 Fe
   0.9999830000000000    0.4999990000000000    0.2828980000000000 Fe
   0.4999830000000000    0.0000000000000000    0.7170650000000000 Fe
   0.4999840000000000    0.5000010000000000    0.7171020000000000 Fe
   0.9999830000000000    0.4999990000000000    0.7171020000000000 Fe
   0.3332400000000000    0.6665150000000000    0.0000000000000000 Si
   0.6666666666666666    0.3334850000000000    0.0000000000000000 Si
   0.3332960000000000    0.6666666666666666    0.5000000000000000 B
   0.6666666666666666    0.3333790000000000    0.5000000000000000 B
