Gd1 Sc2 Fe8 Os1
1.0
   4.7844928588491475    0.0000000000000000    7.1975452414238124
   2.1739957193884170    4.2620558985726138    7.1975450439445980
   0.0000000000000000    0.0000000000000000    8.6426880900000000
Gd Sc Fe Os
1 2 8 1
direct
   0.0000000000000000    0.0000000000000000    0.0000000000000000 Gd
   0.1432420000000000    0.1432420000000000    0.1432420000000000 Sc
   0.8567580000000000    0.8567580000000000    0.8567580000000000 Sc
   0.3329850000000000    0.3329850000000000    0.3329850000000000 Fe
   0.6670150000000000    0.6670150000000000    0.6670150000000000 Fe
   0.0778070000000000    0.5851610000000000    0.5851610000000000 Fe
   0.5851610000000000    0.5851610000000000    0.0778070000000000 Fe
   0.5851610000000000    0.0778070000000000    0.5851610000000000 Fe
   0.4148390000000000    0.9221930000000000    0.4148390000000000 Fe
   0.9221930000000000    0.4148390000000000    0.4148390000000000 Fe
   0.4148390000000000    0.4148390000000000    0.9221930000000000 Fe
   0.5000000000000000    0.5000000000000000    0.5000000000000000 Os
