Gd6 Co23
1.0
   7.1971669805200005    0.0000000000000000    4.1591807507528298
  -4.7993090919883947    6.7870918745867828   -0.0040225493499245
   0.0000000000000000    0.0000000000000000    8.3125206800000004
Gd Co
6 23
direct
   0.9999490000000000    0.2872330000000000    0.7128160000000000 Gd
   0.4255070000000000    0.7126950000000000    0.2871880000000000 Gd
   0.0001160000000000    0.2873050000000000    0.2871880000000000 Gd
   0.9999490000000000    0.7127670000000000    0.2872840000000000 Gd
   0.5730670000000000    0.2865680000000000    0.7135010000000001 Gd
   0.9999310000000000    0.7134320000000000    0.7135010000000001 Gd
   0.6459790000000000    0.3231200000000000    0.0309010000000000 Co
   0.3541130000000000    0.3229120000000000    0.3229740000000000 Co
   0.3539020000000000    0.0310780000000000    0.3231210000000000 Co
   0.6458010000000000    0.3229780000000000    0.3231210000000000 Co
   0.3541130000000000    0.6770870000000000    0.9688000000000000 Co
   0.6459790000000000    0.6768800000000000    0.6771420000000000 Co
   0.6458010000000000    0.9689219999999999    0.6771750000000000 Co
   0.3539020000000000    0.6770220000000000    0.6771750000000000 Co
   0.0003820000000000    0.0000000000000000    0.9996180000000000 Co
   0.2464440000000000    0.1229380000000000    0.6306170000000000 Co
   0.7535880000000000    0.1230270000000000    0.1233850000000000 Co
   0.7538180000000000    0.6306670000000000    0.1227370000000000 Co
   0.2465950000000000    0.1234440000000000    0.1227370000000000 Co
   0.7535880000000000    0.8769730000000000    0.3694410000000000 Co
   0.2464440000000000    0.8770620000000000    0.8764930000000000 Co
   0.2465950000000000    0.3693330000000000    0.8768510000000000 Co
   0.7538180000000000    0.8765560000000000    0.8768510000000000 Co
   0.9999110000000000    0.9996740000000000    0.5001780000000000 Co
   0.5001490000000000    0.4999110000000000    0.5001780000000000 Co
   0.4998230000000000    0.0000000000000000    0.5001770000000000 Co
   0.9999110000000000    0.5000890000000000    0.9997620000000000 Co
   0.5001490000000000    0.0003260000000000    0.9997620000000000 Co
   0.5006730000000000    0.5000000000000000    0.9993270000000000 Co
