Ce2 Gd2 Fe29 Si5
1.0
   6.3091116635875082    0.0000000000000000    0.8458232070253359
   0.7613165708794838    6.2630093247412733    0.8458229739266392
   0.0000000000000000    0.0000000000000000   12.6699883799999995
Ce Gd Fe Si
2 2 29 5
direct
   0.6572670000000000    0.6572670000000000    0.3302340000000000 Ce
   0.6575590000000000    0.6575590000000000    0.8287140000000000 Ce
   0.3421520000000000    0.3421520000000000    0.1700960000000000 Gd
   0.3416690000000000    0.3416690000000000    0.6708450000000000 Gd
   0.3016710000000000    0.7006140000000000    0.9998350000000000 Fe
   0.2989870000000000    0.6997980000000000    0.4993700000000000 Fe
   0.6991720000000000    0.9992970000000000    0.1517490000000000 Fe
   0.6997920000000000    0.9985490000000000    0.6505510000000000 Fe
   0.0000230000000000    0.3019330000000000    0.3490260000000000 Fe
   0.0004060000000000    0.3007310000000000    0.8499080000000000 Fe
   0.3019330000000000    0.0000230000000000    0.3490260000000000 Fe
   0.3007310000000000    0.0004060000000000    0.8499080000000000 Fe
   0.9992970000000000    0.6991720000000000    0.1517490000000000 Fe
   0.9985490000000000    0.6997920000000000    0.6505510000000000 Fe
   0.6997980000000000    0.2989870000000000    0.4993700000000000 Fe
   0.7006140000000000    0.3016710000000000    0.9998350000000000 Fe
   0.3400020000000000    0.3400020000000000    0.4247810000000000 Fe
   0.3409990000000000    0.3409990000000000    0.9223100000000000 Fe
   0.3413930000000000    0.8483250000000000    0.1701000000000000 Fe
   0.3399450000000000    0.8469210000000000    0.6707220000000000 Fe
   0.8483250000000000    0.3413930000000000    0.1701000000000000 Fe
   0.8469210000000000    0.3399450000000000    0.6707220000000000 Fe
   0.6599110000000000    0.6599110000000000    0.0737000000000000 Fe
   0.6595220000000001    0.6595220000000001    0.5758540000000000 Fe
   0.6588280000000000    0.1496490000000000    0.3298380000000000 Fe
   0.6609020000000000    0.1499200000000000    0.8298910000000000 Fe
   0.1496490000000000    0.6588280000000000    0.3298380000000000 Fe
   0.1499200000000000    0.6609020000000000    0.8298910000000000 Fe
   0.9045390000000000    0.9045390000000000    0.4515000000000000 Fe
   0.9053010000000000    0.9053010000000000    0.9528350000000000 Fe
   0.0947810000000000    0.0947810000000000    0.0473330000000000 Fe
   0.0934070000000000    0.0934070000000000    0.5470739999999999 Fe
   0.0025710000000000    0.0025710000000000    0.2494090000000000 Fe
   0.0017830000000000    0.0017830000000000    0.7497100000000000 Si
   0.0030190000000000    0.5005030000000000    0.0002540000000000 Si
   0.9999250000000000    0.4982340000000000    0.5015590000000000 Si
   0.4982340000000000    0.9999250000000000    0.5015590000000000 Si
   0.5005030000000000    0.0030190000000000    0.0002540000000000 Si
