Gd1 Y3 Fe12 Co2
1.0
   4.9842828065747113    0.0000000000000000    1.0447275549340007
   2.3836945652960555    4.3820781264756308    1.0397560852128698
   0.0000000000000000    0.0000000000000000   12.4121066199999994
Gd Y Fe Co
1 3 12 2
direct
   0.8505670000000000    0.8511350000000000    0.4477300000000000 Gd
   0.0521320000000000    0.0520550000000000    0.8436790000000000 Y
   0.9482120000000001    0.9481590000000000    0.1554190000000000 Y
   0.1498280000000000    0.1488120000000000    0.5515330000000001 Y
   0.2786110000000000    0.2779100000000000    0.1648680000000000 Fe
   0.7222250000000000    0.7209070000000000    0.8346440000000001 Fe
   0.3879300000000000    0.3885870000000000    0.8355540000000000 Fe
   0.6117590000000001    0.6125730000000000    0.1639080000000000 Fe
   0.5003320000000000    0.5001690000000000    0.9998320000000001 Fe
   0.4999680000000000    0.0002020000000000    0.9998629999999999 Fe
   0.9996660000000001    0.5001690000000000    0.9998320000000001 Fe
   0.1088920000000000    0.6094130000000000    0.6722780000000000 Fe
   0.6094180000000000    0.6094130000000000    0.6722780000000000 Fe
   0.6098240000000000    0.1080480000000000    0.6723040000000000 Fe
   0.8899510000000000    0.3909200000000000    0.3285150000000000 Fe
   0.3906140000000000    0.3909200000000000    0.3285150000000000 Fe
   0.4995800000000000    0.4995480000000000    0.5012920000000000 Co
   0.3904920000000000    0.8910620000000000    0.3279560000000000 Co
