Gd1 Y3 Fe8
1.0
   4.9199428296105605    0.0000000000000000    7.4347294603996144
   2.2372211431086066    4.3818583811441529    7.4347292481711813
   0.0000000000000000    0.0000000000000000    8.9152138000000001
Gd Y Fe
1 3 8
direct
   0.6874180000000000    0.6874180000000000    0.6874180000000000 Gd
   0.1874810000000000    0.1874810000000000    0.1874810000000000 Y
   0.8125650000000000    0.8125650000000000    0.8125650000000000 Y
   0.3125460000000000    0.3125460000000000    0.3125460000000000 Y
   0.0000080000000000    0.0000080000000000    0.0000080000000000 Fe
   0.5000720000000000    0.5000720000000000    0.5000720000000000 Fe
   0.7499850000000000    0.2498500000000000    0.2498500000000000 Fe
   0.2504250000000000    0.7499000000000000    0.7499000000000000 Fe
   0.2498500000000000    0.7499850000000000    0.2498500000000000 Fe
   0.7499000000000000    0.2504250000000000    0.7499000000000000 Fe
   0.2498500000000000    0.2498500000000000    0.7499850000000000 Fe
   0.7499000000000000    0.7499000000000000    0.2504250000000000 Fe
