Gd2 Al3 Fe14 C2
1.0
   6.4161026680788904    0.0000000000000000    0.7007410579158585
   0.7689001451787127    6.3698647089039460    0.7007408245715178
   0.0000000000000000    0.0000000000000000    6.5021303799999997
Gd Al Fe C
2 3 14 2
direct
   0.3446980000000000    0.3446980000000000    0.3420510000000000 Gd
   0.6553020000000001    0.6553020000000001    0.6579490000000000 Gd
   0.7110570000000001    0.2889430000000000    0.0000000000000000 Al
   0.2889430000000000    0.7110570000000001    0.0000000000000000 Al
   0.0000000000000000    0.0000000000000000    0.5000000000000000 Al
   0.0969840000000000    0.0969840000000000    0.0963750000000000 Fe
   0.9030160000000000    0.9030160000000000    0.9036250000000000 Fe
   0.2863600000000000    0.0053610000000000    0.7162890000000000 Fe
   0.9946390000000001    0.7136400000000001    0.2837110000000000 Fe
   0.7136400000000001    0.9946390000000001    0.2837110000000000 Fe
   0.0053610000000000    0.2863600000000000    0.7162890000000000 Fe
   0.6578330000000000    0.6578330000000000    0.1489940000000000 Fe
   0.6523580000000000    0.1491630000000000    0.6578619999999999 Fe
   0.1491620000000000    0.6523580000000000    0.6578619999999999 Fe
   0.3421670000000000    0.3421670000000000    0.8510060000000000 Fe
   0.3476420000000000    0.8508380000000000    0.3421380000000000 Fe
   0.8508380000000000    0.3476420000000000    0.3421380000000000 Fe
   0.0000000000000000    0.5000000000000000    0.0000000000000000 Fe
   0.5000000000000000    0.0000000000000000    0.0000000000000000 Fe
   0.5000000000000000    0.0000000000000000    0.5000000000000000 C
   0.0000000000000000    0.5000000000000000    0.5000000000000000 C
