Gd3 Lu3 Fe18
1.0
   4.9725748567618977    0.0000000000000000   -0.7780618177936508
   2.4254158960444618    4.3409516911470405   -0.7780617357245841
   0.0000000000000000    0.0000000000000000   16.2788340399999996
Gd Lu Fe
3 3 18
direct
   0.5711410000000000    0.5711410000000000    0.7134200000000001 Gd
   0.0000180000000000    0.0000180000000000    0.0000530000000000 Gd
   0.4997950000000000    0.4997950000000000    0.4993840000000000 Gd
   0.4288220000000000    0.4288220000000000    0.2864680000000000 Lu
   0.9288830000000000    0.9288830000000000    0.7866490000000000 Lu
   0.0712230000000000    0.0712230000000000    0.2136660000000000 Lu
   0.4576030000000000    0.9592300000000000    0.3760620000000000 Fe
   0.9582470000000000    0.4591900000000000    0.8766280000000000 Fe
   0.9592300000000000    0.9592300000000000    0.3760620000000000 Fe
   0.4591900000000000    0.4591900000000000    0.8766280000000000 Fe
   0.9592300000000000    0.4576030000000000    0.3760620000000000 Fe
   0.4591900000000000    0.9582470000000000    0.8766280000000000 Fe
   0.0423620000000000    0.5409600000000000    0.1242830000000000 Fe
   0.5419400000000000    0.0405620000000000    0.6230640000000000 Fe
   0.5409600000000000    0.5409600000000000    0.1242830000000000 Fe
   0.0405620000000000    0.0405620000000000    0.6230640000000000 Fe
   0.5409600000000000    0.0423620000000000    0.1242830000000000 Fe
   0.0405620000000000    0.5419400000000000    0.6230640000000000 Fe
   0.3337430000000000    0.3337430000000000    0.0012310000000000 Fe
   0.8334110000000000    0.8334110000000000    0.5002330000000000 Fe
   0.1662450000000000    0.1662450000000000    0.4987370000000000 Fe
   0.6666666666666666    0.6666666666666666    0.9998820000000000 Fe
   0.7500970000000000    0.7500970000000000    0.2502930000000000 Fe
   0.2499590000000000    0.2499590000000000    0.7498760000000000 Fe
