Gd1 Sc3 Fe20 P12
1.0
   3.6131080000000000    0.0000000000000000    0.0000000000000002
  -0.0000000000000006   10.1939075989639747    0.0394929719993376
   0.0000000000000000    0.0000000000000000   11.7110350099999998
Gd Sc Fe P
1 3 20 12
direct
   0.7500000000000000    0.0809730000000000    0.7945710000000000 Gd
   0.2500000000000000    0.5786690000000000    0.7041500000000001 Sc
   0.2500000000000000    0.9191570000000000    0.2040700000000000 Sc
   0.7500000000000000    0.4209140000000000    0.2960410000000000 Sc
   0.2500000000000000    0.7082540000000001    0.9908210000000000 Fe
   0.2500000000000000    0.7899340000000000    0.4877190000000000 Fe
   0.7500000000000000    0.2920410000000000    0.0114100000000000 Fe
   0.7500000000000000    0.2086330000000000    0.5110270000000000 Fe
   0.2500000000000000    0.4062050000000000    0.4884770000000000 Fe
   0.2500000000000000    0.0939150000000000    0.9917650000000000 Fe
   0.7500000000000000    0.5928110000000000    0.5109950000000000 Fe
   0.7500000000000000    0.9050940000000000    0.0130200000000000 Fe
   0.2500000000000000    0.2204620000000000    0.1769390000000000 Fe
   0.2500000000000000    0.2818300000000000    0.6757160000000000 Fe
   0.7500000000000000    0.7789690000000000    0.8237110000000000 Fe
   0.7500000000000000    0.7196970000000000    0.3240150000000000 Fe
   0.2500000000000000    0.8728180000000000    0.7000930000000000 Fe
   0.2500000000000000    0.6234470000000000    0.2025010000000000 Fe
   0.7500000000000000    0.1251200000000000    0.2972070000000000 Fe
   0.7500000000000000    0.3797300000000000    0.7983789999999999 Fe
   0.2500000000000000    0.4654250000000000    0.9335970000000000 Fe
   0.2500000000000000    0.0369930000000000    0.4287330000000000 Fe
   0.7500000000000000    0.5378120000000000    0.0694780000000000 Fe
   0.7500000000000000    0.9601300000000000    0.5651840000000000 Fe
   0.2500000000000000    0.4225200000000000    0.1166240000000000 P
   0.2500000000000000    0.0785050000000000    0.6103150000000001 P
   0.7500000000000000    0.5782100000000000    0.8853380000000000 P
   0.7500000000000000    0.9215380000000000    0.3825990000000000 P
   0.2500000000000000    0.2673380000000000    0.8721270000000000 P
   0.2500000000000000    0.2392620000000000    0.3703280000000000 P
   0.7500000000000000    0.7375570000000000    0.1313900000000000 P
   0.7500000000000000    0.7601980000000000    0.6292700000000000 P
   0.2500000000000000    0.5981460000000000    0.3942100000000000 P
   0.2500000000000000    0.8982390000000000    0.8968060000000000 P
   0.7500000000000000    0.4012620000000000    0.6059920000000000 P
   0.7500000000000000    0.0981910000000000    0.1053810000000000 P
