Gd2 Al1 Fe14 Si2 C3
1.0
   6.4086950419303443    0.0000000000000000    0.6643524738328093
   0.6631504224664558    6.4184615653736437    0.7354470287651876
   0.0000000000000000    0.0000000000000000    6.4430371099999997
Gd Al Fe Si C
2 1 14 2 3
direct
   0.6547960000000000    0.6544960000000000    0.6547960000000000 Gd
   0.3452040000000000    0.3455040000000000    0.3452040000000000 Gd
   0.0000000000000000    0.5000000000000000    0.0000000000000000 Al
   0.7107720000000000    0.2818640000000000    0.0000190000000000 Fe
   0.9999810000000000    0.7181360000000000    0.2892280000000000 Fe
   0.2856760000000000    0.0000000000000000    0.7143240000000000 Fe
   0.0000190000000000    0.2818640000000000    0.7107720000000000 Fe
   0.7143240000000000    0.0000000000000000    0.2856760000000000 Fe
   0.2892280000000000    0.7181360000000000    0.9999810000000000 Fe
   0.3447830000000000    0.3375730000000000    0.8559820000000000 Fe
   0.8559820000000000    0.3375730000000000    0.3447830000000000 Fe
   0.3398170000000000    0.8642230000000000    0.3398170000000000 Fe
   0.6552170000000000    0.6624270000000000    0.1440180000000000 Fe
   0.1440180000000000    0.6624270000000000    0.6552170000000000 Fe
   0.6601830000000000    0.1357770000000000    0.6601830000000000 Fe
   0.9035320000000000    0.9060820000000001    0.9035320000000000 Fe
   0.0964680000000000    0.0939180000000000    0.0964680000000000 Fe
   0.0000000000000000    0.0000000000000000    0.5000000000000000 Si
   0.5000000000000000    0.0000000000000000    0.0000000000000000 Si
   0.5000000000000000    0.5000000000000000    0.0000000000000000 C
   0.0000000000000000    0.5000000000000000    0.5000000000000000 C
   0.5000000000000000    0.0000000000000000    0.5000000000000000 C
