Gd1 Lu2 Fe8 Ru1
1.0
   4.8511615579636507    0.0000000000000000    1.4782342317479304
   2.2003582091335661    4.3234455435948513    1.4782341946572002
   0.0000000000000000    0.0000000000000000    8.6992061199999995
Gd Lu Fe Ru
1 2 8 1
direct
   0.0000000000000000    0.0000000000000000    0.0000000000000000 Gd
   0.1420250000000000    0.1420250000000000    0.5739270000000000 Lu
   0.8579750000000000    0.8579750000000000    0.4260730000000000 Lu
   0.0770990000000000    0.5832210000000000    0.7564600000000000 Fe
   0.5832210000000000    0.5832210000000000    0.7564600000000000 Fe
   0.5832210000000000    0.0770990000000000    0.7564600000000000 Fe
   0.9229010000000000    0.4167790000000000    0.2435400000000000 Fe
   0.4167790000000000    0.4167790000000000    0.2435400000000000 Fe
   0.4167790000000000    0.9229010000000000    0.2435400000000000 Fe
   0.3331910000000000    0.3331910000000000    0.0004260000000000 Fe
   0.6668080000000000    0.6668080000000000    0.9995740000000000 Fe
   0.5000000000000000    0.5000000000000000    0.5000000000000000 Ru
