Gd6 Fe4 Co19
1.0
   8.3151849999999996    0.0000000000000000    0.0000000000000005
  -4.1575929988012286    5.8814482553060143   -4.1551521582878328
   0.0000000000000000    0.0000000000000000    8.3200690099999992
Gd Fe Co
6 4 19
direct
   0.7112290000000000    0.9987650000000000    0.2863020000000000 Gd
   0.2875380000000000    0.9987650000000000    0.2863030000000000 Gd
   0.2875380000000000    0.5750750000000000    0.2863030000000000 Gd
   0.7124630000000000    0.0012350000000000    0.7136980000000001 Gd
   0.2887720000000000    0.0012350000000000    0.7136990000000000 Gd
   0.7124640000000000    0.4249270000000000    0.7136990000000000 Gd
   0.0000000000000000    0.0000000000000000    0.0000000000000000 Fe
   0.0000000000000000    0.0000000000000000    0.5000000000000000 Fe
   0.0000000000000000    0.5000000000000000    0.5000000000000000 Fe
   0.5000000000000000    0.5000000000000000    0.5000000000000000 Fe
   0.5000000000000000    0.0000000000000000    0.0000000000000000 Co
   0.0000000000000000    0.5000000000000000    0.0000000000000000 Co
   0.5000000000000000    0.5000000000000000    0.0000000000000000 Co
   0.6768890000000000    0.3537780000000000    0.0306670000000000 Co
   0.3704680000000000    0.2465900000000000    0.1227130000000000 Co
   0.8761210000000000    0.2465900000000000    0.1227130000000000 Co
   0.8761210000000000    0.7522430000000000    0.1227130000000000 Co
   0.6763300000000000    0.3526600000000000    0.3228040000000000 Co
   0.6763300000000000    0.6464740000000000    0.3228040000000000 Co
   0.9701430000000000    0.6464740000000000    0.3228040000000000 Co
   0.1218700000000000    0.2437410000000000    0.3656110000000000 Co
   0.8781280000000000    0.7562570000000000    0.6343870000000000 Co
   0.0298570000000000    0.3535260000000000    0.6771960000000000 Co
   0.3236700000000000    0.3535260000000000    0.6771960000000000 Co
   0.3236700000000000    0.6473400000000000    0.6771960000000000 Co
   0.1238770000000000    0.2477550000000000    0.8772850000000000 Co
   0.1238770000000000    0.7534080000000000    0.8772850000000000 Co
   0.6295300000000000    0.7534080000000000    0.8772850000000000 Co
   0.3231110000000000    0.6462220000000000    0.9693330000000000 Co
