Gd3 Y1 Co6
1.0
   5.3975929965713974    0.0000000000000000    0.0001923860804410
  -2.7467065094217076    4.6464629603383356   -0.0001921760165293
   0.0000000000000000    0.0000000000000000    6.9999849999999997
Gd Y Co
3 1 6
direct
   0.3371530000000000    0.6628490000000000    0.0972590000000000 Gd
   0.8370820000000000    0.1629200000000000    0.4025750000000000 Gd
   0.1629490000000000    0.8370530000000000    0.5975950000000000 Gd
   0.6630470000000001    0.3369550000000000    0.9024700000000000 Y
   0.9999430000000000    0.0000570000000000    0.9998910000000000 Co
   0.3345580000000000    0.1653180000000000    0.2501710000000000 Co
   0.8346810000000000    0.6654420000000000    0.2501710000000000 Co
   0.5000150000000000    0.4999870000000000    0.5000590000000000 Co
   0.1652450000000000    0.3346690000000000    0.7499040000000000 Co
   0.6653310000000000    0.8347540000000000    0.7499040000000000 Co
