Gd1 Zr1 Fe12 P7
1.0
   8.8948570000000000    0.0000000000000000    0.0000000000000005
  -4.4474289988818336    7.7031719986583385    0.0000000000000005
   0.0000000000000000    0.0000000000000000    3.6225209999999999
Gd Zr Fe P
1 1 12 7
direct
   0.3333333333333333    0.6666666666666666    0.0000000000000000 Gd
   0.0000000000000000    0.0000000000000000    0.5000000000000000 Zr
   0.7294100000000000    0.7591040000000000    0.0000000000000000 Fe
   0.2408960000000000    0.9703060000000000    0.0000000000000000 Fe
   0.0296940000000000    0.2705900000000000    0.0000000000000000 Fe
   0.9407440000000000    0.4895780000000000    0.0000000000000000 Fe
   0.5104220000000000    0.4511640000000000    0.0000000000000000 Fe
   0.5488360000000000    0.0592560000000000    0.0000000000000000 Fe
   0.0997120000000000    0.7222020000000000    0.5000000000000000 Fe
   0.2777980000000000    0.3775110000000000    0.5000000000000000 Fe
   0.6224890000000000    0.9002880000000000    0.5000000000000000 Fe
   0.7603990000000000    0.5429540000000000    0.5000000000000000 Fe
   0.4570460000000000    0.2174460000000000    0.5000000000000000 Fe
   0.7825540000000000    0.2396010000000000    0.5000000000000000 Fe
   0.9693980000000000    0.7491580000000000    0.0000000000000000 P
   0.2508420000000000    0.2202390000000000    0.0000000000000000 P
   0.7797610000000000    0.0306020000000000    0.0000000000000000 P
   0.0658100000000000    0.4456290000000000    0.5000000000000000 P
   0.5543709999999999    0.6201800000000000    0.5000000000000000 P
   0.3798200000000000    0.9341900000000000    0.5000000000000000 P
   0.6666666666666666    0.3333333333333333    0.0000000000000000 P
