Gd2 Mn2 Be3 Fe12 C3
1.0
   6.2816463285149222    0.0000000000000000    0.7328477426897246
   0.6404935861496225    6.2489069121491836    0.7328462495404450
   0.0000000000000000    0.0000000000000000    6.3353334500000003
Gd Mn Be Fe C
2 2 3 12 3
direct
   0.6550740000000000    0.6542680000000000    0.6548970000000000 Gd
   0.3457320000000000    0.3449260000000000    0.3451030000000000 Gd
   0.9992450000000000    0.7219540000000000    0.2765820000000000 Mn
   0.2780460000000000    0.0007550000000000    0.7234180000000000 Mn
   0.9996150000000000    0.0003850000000000    0.5000000000000000 Be
   0.5009360000000000    0.9991660000000000    0.0023570000000000 Be
   0.0008340000000000    0.4990640000000000    0.9976429999999999 Be
   0.7206090000000001    0.2793910000000000    0.0000000000000000 Fe
   0.0016110000000000    0.2799610000000000    0.7169759999999999 Fe
   0.7200390000000000    0.9983890000000000    0.2830240000000000 Fe
   0.2806320000000000    0.7193680000000000    0.0000000000000000 Fe
   0.3374230000000000    0.8602280000000000    0.3375380000000000 Fe
   0.3387960000000000    0.3373790000000000    0.8605380000000000 Fe
   0.8603410000000000    0.3391030000000000    0.3366200000000000 Fe
   0.6608970000000000    0.1396590000000000    0.6633800000000000 Fe
   0.6626210000000000    0.6612040000000000    0.1394620000000000 Fe
   0.1397720000000000    0.6625770000000000    0.6624620000000000 Fe
   0.9002890000000000    0.9015700000000000    0.9016350000000000 Fe
   0.0984300000000000    0.0997110000000000    0.0983650000000000 Fe
   0.4996000000000000    0.5004000000000000    0.0000000000000000 C
   0.0005970000000000    0.5011380000000000    0.4984870000000000 C
   0.4988620000000000    0.9994030000000000    0.5015130000000000 C
