Gd3 Y3 Fe16 Co2
1.0
   5.1061389999999998    0.0000000000000000    0.0000000000000003
  -2.5530690005226195    4.4220470011660717    0.0000000000000003
   0.0000000000000000    0.0000000000000000   16.1985719999999986
Gd Y Fe Co
3 3 16 2
direct
   0.3333333333333333    0.6666666666666666    0.9632540000000001 Gd
   0.6666666666666666    0.3333333333333333    0.0367090000000000 Gd
   0.6666666666666666    0.3333333333333333    0.4632340000000000 Gd
   0.3333333333333333    0.6666666666666666    0.5367200000000000 Y
   0.3333333333333333    0.6666666666666666    0.7500470000000000 Y
   0.6666666666666666    0.3333333333333333    0.2499880000000000 Y
   0.1664600000000000    0.8335399999999999    0.3725540000000000 Fe
   0.1664600000000000    0.3329210000000000    0.3725540000000000 Fe
   0.6670790000000000    0.8335399999999999    0.3725540000000000 Fe
   0.8334940000000000    0.1665060000000000    0.6274760000000000 Fe
   0.8334940000000000    0.6669890000000001    0.6274760000000000 Fe
   0.3330110000000000    0.1665060000000000    0.6274760000000000 Fe
   0.8334859999999999    0.1665140000000000    0.8725910000000000 Fe
   0.8334859999999999    0.6669730000000000    0.8725910000000000 Fe
   0.3330270000000000    0.1665140000000000    0.8725910000000000 Fe
   0.1665210000000000    0.8334790000000000    0.1274050000000000 Fe
   0.1665210000000000    0.3330410000000000    0.1274050000000000 Fe
   0.6669590000000000    0.8334790000000000    0.1274050000000000 Fe
   0.3333333333333333    0.6666666666666666    0.2500030000000000 Fe
   0.6666666666666666    0.3333333333333333    0.7500110000000000 Fe
   0.0000000000000000    0.0000000000000000    0.2499920000000000 Fe
   0.0000000000000000    0.0000000000000000    0.7500090000000000 Fe
   0.0000000000000000    0.0000000000000000    0.4999670000000000 Co
   0.0000000000000000    0.0000000000000000    0.9999890000000000 Co
