Gd6 Al3 Fe20
1.0
   7.3114642102171299    0.0000000000000000    4.2381989139498080
   2.4420277810996835    6.8915908525174183    4.2381984091900478
   0.0000000000000000    0.0000000000000000    8.4510270700000003
Gd Al Fe
6 3 20
direct
   0.7051080000000000    0.7051080000000000    0.2906640000000000 Gd
   0.2987630000000000    0.7024440000000000    0.2987630000000000 Gd
   0.7024440000000000    0.2987630000000000    0.2987630000000000 Gd
   0.2987630000000000    0.2987630000000000    0.7024440000000000 Gd
   0.7051080000000000    0.2906640000000000    0.7051080000000000 Gd
   0.2906640000000000    0.7051080000000000    0.7051080000000000 Gd
   0.8809040000000000    0.8809040000000000    0.3592030000000000 Al
   0.8809040000000000    0.3592030000000000    0.8809040000000000 Al
   0.3592030000000000    0.8809040000000000    0.8809040000000000 Al
   0.9942470000000000    0.9942470000000000    0.9942470000000000 Fe
   0.0009970000000000    0.0009970000000000    0.4993860000000000 Fe
   0.4982300000000000    0.0025810000000000    0.4982300000000000 Fe
   0.0025810000000000    0.4982300000000000    0.4982300000000000 Fe
   0.4982300000000000    0.4982300000000000    0.0025810000000000 Fe
   0.0009970000000000    0.4993860000000000    0.0009970000000000 Fe
   0.4993860000000000    0.0009970000000000    0.0009970000000000 Fe
   0.8768710000000000    0.8768710000000000    0.8768710000000000 Fe
   0.1227850000000000    0.1227850000000000    0.6352430000000000 Fe
   0.1227850000000000    0.6352430000000000    0.1227850000000000 Fe
   0.6352430000000000    0.1227850000000000    0.1227850000000000 Fe
   0.1215050000000000    0.1215050000000000    0.1215050000000000 Fe
   0.6759020000000000    0.6759020000000000    0.9732769999999999 Fe
   0.6759020000000000    0.9732769999999999    0.6759020000000000 Fe
   0.9732769999999999    0.6759020000000000    0.6759020000000000 Fe
   0.6767380000000000    0.6767380000000000    0.6767380000000000 Fe
   0.3251530000000000    0.3251530000000000    0.0257460000000000 Fe
   0.3251530000000000    0.0257460000000000    0.3251530000000000 Fe
   0.0257460000000000    0.3251530000000000    0.3251530000000000 Fe
   0.3264090000000000    0.3264090000000000    0.3264090000000000 Fe
