Gd2 Be3 Fe14 C3
1.0
   6.2921235468245991    0.0000000000000000    0.7397389062168990
   0.6578646911008984    6.2576380274171397    0.7397379516183679
   0.0000000000000000    0.0000000000000000    6.3354580100000000
Gd Be Fe C
2 3 14 3
direct
   0.3449280000000000    0.3449280000000000    0.3449280000000000 Gd
   0.6557710000000000    0.6557710000000000    0.6557710000000000 Gd
   0.9999550000000000    0.9999550000000000    0.5000910000000000 Be
   0.5000910000000000    0.9999550000000000    0.9999550000000000 Be
   0.9999550000000000    0.5000910000000000    0.9999550000000000 Be
   0.7195040000000000    0.2807190000000000    0.9996710000000000 Fe
   0.9996710000000000    0.7195040000000000    0.2807190000000000 Fe
   0.2807190000000000    0.9996710000000000    0.7195040000000000 Fe
   0.9996710000000000    0.2807190000000000    0.7195040000000000 Fe
   0.7195040000000000    0.9996710000000000    0.2807190000000000 Fe
   0.2807190000000000    0.7195040000000000    0.9996710000000000 Fe
   0.3386430000000000    0.8603360000000000    0.3386430000000000 Fe
   0.3386430000000000    0.3386430000000000    0.8603360000000000 Fe
   0.8603360000000000    0.3386430000000000    0.3386430000000000 Fe
   0.6617070000000000    0.1389850000000000    0.6617070000000000 Fe
   0.6617070000000000    0.6617070000000000    0.1389850000000000 Fe
   0.1389850000000000    0.6617070000000000    0.6617070000000000 Fe
   0.9014050000000000    0.9014050000000000    0.9014050000000000 Fe
   0.0982450000000000    0.0982450000000000    0.0982450000000000 Fe
   0.5007090000000000    0.5007090000000000    0.9984220000000000 C
   0.9984220000000000    0.5007090000000000    0.5007090000000000 C
   0.5007090000000000    0.9984220000000000    0.5007090000000000 C
