Gd3 Fe8 Os1
1.0
   4.8720467065478985    0.0000000000000000    7.2383211652243409
   2.2091187201368365    4.3424232093706889    7.2383209737733019
   0.0000000000000000    0.0000000000000000    8.7252583500000007
Gd Fe Os
3 8 1
direct
   0.0004470000000000    0.0004470000000000    0.0004470000000000 Gd
   0.8578040000000000    0.8578040000000000    0.8578040000000000 Gd
   0.1418400000000000    0.1418400000000000    0.1418400000000000 Gd
   0.3327630000000000    0.3327630000000000    0.3327630000000000 Fe
   0.6672650000000000    0.6672650000000000    0.6672650000000000 Fe
   0.0780660000000000    0.5819590000000000    0.5819590000000000 Fe
   0.5819590000000000    0.5819590000000000    0.0780660000000000 Fe
   0.5819590000000000    0.0780660000000000    0.5819590000000000 Fe
   0.4181500000000000    0.9218180000000000    0.4181500000000000 Fe
   0.9218180000000000    0.4181500000000000    0.4181500000000000 Fe
   0.4181500000000000    0.4181500000000000    0.9218180000000000 Fe
   0.4997810000000000    0.4997810000000000    0.4997810000000000 Os
