Gd1 Ta2 Fe9
1.0
   4.6843159807674839    0.0000000000000000    6.8967870132720765
   2.1207041558589634    4.1767708523522717    6.8967871098013225
   0.0000000000000000    0.0000000000000000    8.3371745700000002
Gd Ta Fe
1 2 9
direct
   0.0000000000000000    0.0000000000000000    0.0000000000000000 Gd
   0.1436190000000000    0.1436190000000000    0.1436190000000000 Ta
   0.8563809999999999    0.8563809999999999    0.8563809999999999 Ta
   0.4115210000000000    0.4115210000000000    0.9177810000000000 Fe
   0.9177810000000000    0.4115210000000000    0.4115210000000000 Fe
   0.5884790000000000    0.0822190000000000    0.5884790000000000 Fe
   0.5884790000000000    0.5884790000000000    0.0822190000000000 Fe
   0.4115210000000000    0.9177810000000000    0.4115210000000000 Fe
   0.0822190000000000    0.5884790000000000    0.5884790000000000 Fe
   0.3334260000000000    0.3334260000000000    0.3334260000000000 Fe
   0.6665740000000000    0.6665740000000000    0.6665740000000000 Fe
   0.5000000000000000    0.5000000000000000    0.5000000000000000 Fe
