Gd1 Ta1 Fe12 P7
1.0
   8.8468079999999993    0.0000000000000000    0.0000000000000005
  -4.4234039982535629    7.6615599979844831    0.0000000000000005
   0.0000000000000000    0.0000000000000000    3.5856340000000002
Gd Ta Fe P
1 1 12 7
direct
   0.0000000000000000    0.0000000000000000    0.5000000000000000 Gd
   0.3333333333333333    0.6666666666666666    0.0000000000000000 Ta
   0.7218130000000000    0.9589930000000000    0.0000000000000000 Fe
   0.2371810000000000    0.2781870000000000    0.0000000000000000 Fe
   0.0410070000000000    0.7628190000000000    0.0000000000000000 Fe
   0.9439170000000000    0.4543790000000000    0.0000000000000000 Fe
   0.5104630000000000    0.0560830000000000    0.0000000000000000 Fe
   0.5456210000000000    0.4895370000000000    0.0000000000000000 Fe
   0.1088450000000000    0.3954430000000000    0.5000000000000000 Fe
   0.2865990000000000    0.8911550000000000    0.5000000000000000 Fe
   0.6045570000000000    0.7134010000000000    0.5000000000000000 Fe
   0.7668380000000000    0.2121460000000000    0.5000000000000000 Fe
   0.4453080000000000    0.2331620000000000    0.5000000000000000 Fe
   0.7878540000000001    0.5546920000000000    0.5000000000000000 Fe
   0.9623470000000000    0.2182430000000000    0.0000000000000000 P
   0.2558960000000000    0.0376530000000000    0.0000000000000000 P
   0.7817570000000000    0.7441040000000000    0.0000000000000000 P
   0.0727140000000000    0.6244880000000000    0.5000000000000000 P
   0.5517740000000000    0.9272860000000001    0.5000000000000000 P
   0.3755120000000000    0.4482260000000000    0.5000000000000000 P
   0.6666666666666666    0.3333333333333333    0.0000000000000000 P
