Gd6 Fe2 Co21
1.0
   8.3059874708754169    0.0000000000000000    0.0436774295023230
  -4.1509891791898239    5.8887224033320429   -4.1728748964265856
   0.0000000000000000    0.0000000000000000    8.3061024200000002
Gd Fe Co
6 2 21
direct
   0.7134450000000000    0.0000000000000000    0.2865560000000000 Gd
   0.2881300000000000    0.0011900000000000    0.2881300000000000 Gd
   0.2881300000000000    0.5750680000000000    0.2881300000000000 Gd
   0.7118710000000000    0.9988100000000000    0.7118710000000000 Gd
   0.2865560000000000    0.0000000000000000    0.7134450000000000 Gd
   0.7118719999999999    0.4249340000000000    0.7118719999999999 Gd
   0.0000000000000000    0.0000000000000000    0.0000000000000000 Fe
   0.0000000000000000    0.5000000000000000    0.0000000000000000 Fe
   0.5000000000000000    0.0000000000000000    0.0000000000000000 Co
   0.5000000000000000    0.5000000000000000    0.0000000000000000 Co
   0.6759510000000000    0.3531460000000000    0.0303430000000000 Co
   0.3705690000000000    0.2471720000000000    0.1237740000000000 Co
   0.8771270000000000    0.2457880000000000    0.1228710000000000 Co
   0.8771270000000000    0.7542100000000000    0.1228710000000000 Co
   0.6772040000000000    0.3537130000000000    0.3227960000000000 Co
   0.6772040000000000    0.6462869999999999    0.3227960000000000 Co
   0.9696570000000000    0.6468540000000000    0.3240490000000000 Co
   0.1237740000000000    0.2471720000000000    0.3705690000000000 Co
   0.0000000000000000    0.0000000000000000    0.5000000000000000 Co
   0.0000000000000000    0.5000000000000000    0.5000000000000000 Co
   0.5000000000000000    0.5000000000000000    0.5000000000000000 Co
   0.8762240000000000    0.7528260000000000    0.6294290000000000 Co
   0.0303430000000000    0.3531460000000000    0.6759510000000000 Co
   0.3227960000000000    0.3537130000000000    0.6772040000000000 Co
   0.3227960000000000    0.6462869999999999    0.6772040000000000 Co
   0.1228710000000000    0.2457880000000000    0.8771270000000000 Co
   0.1228710000000000    0.7542100000000000    0.8771270000000000 Co
   0.6294290000000000    0.7528260000000000    0.8762240000000000 Co
   0.3240490000000000    0.6468540000000000    0.9696570000000000 Co
