Gd2 Fe8 B2
1.0
   5.0987692600000001    0.0000000000000000    0.0000000000000003
  -2.5490855206640215    4.4158363845439270    0.0000000000000003
   0.0000000000000000    0.0000000000000000    7.0388356900000000
Gd Fe B
2 8 2
direct
   0.5000000000000000    0.5000000000000000    0.0000000000000000 Gd
   0.5000000000000000    0.5000000000000000    0.5000000000000000 Gd
   0.1666620600000000    0.8333379400000001    0.0000000000000000 Fe
   0.8333379400000001    0.1666620600000000    0.0000000000000000 Fe
   0.0000000000000000    0.0000000000000000    0.2851750300000000 Fe
   0.5000000000000000    0.0000000000000000    0.2851217800000000 Fe
   0.0000000000000000    0.5000000000000000    0.2851217800000000 Fe
   0.0000000000000000    0.0000000000000000    0.7148249700000000 Fe
   0.5000000000000000    0.0000000000000000    0.7148782200000000 Fe
   0.0000000000000000    0.5000000000000000    0.7148782200000000 Fe
   0.1667005400000000    0.8332994600000000    0.5000000000000000 B
   0.8332994600000000    0.1667005400000000    0.5000000000000000 B
