Gd4 Fe6 Os2
1.0
   5.2078305263121951    0.0000000000000000   -0.0679007981339696
  -2.6394822694716411    4.2140111389489547    1.5496310272968907
   0.0000000000000000    0.0000000000000000    8.9590524899999995
Gd Fe Os
4 6 2
direct
   0.3753460000000000    0.7497900000000000    0.8748640000000000 Gd
   0.9996460000000000    0.0002050000000000    0.0001490000000000 Gd
   0.4995640000000000    0.0003020000000000    0.5001350000000000 Gd
   0.8754380000000000    0.7496969999999999    0.3748650000000000 Gd
   0.4376520000000000    0.8753069999999999    0.1871270000000000 Fe
   0.9373070000000000    0.8745510000000000    0.6878830000000000 Fe
   0.1875030000000000    0.3748730000000000    0.4376230000000000 Fe
   0.6875390000000000    0.3751480000000000    0.9373130000000000 Fe
   0.9375660000000000    0.3752200000000000    0.1871270000000000 Fe
   0.4375660000000000    0.3748100000000000    0.6878830000000000 Fe
   0.4374690000000000    0.3750400000000000    0.1874910000000000 Os
   0.9374040000000000    0.3750540000000000    0.6875420000000000 Os
