Gd6 Fe8 Co15
1.0
   7.2581681323447595    0.0000000000000000    4.2097207209801342
   2.4082684649610475    6.8469868334765156    4.2097216351509115
   0.0000000000000000    0.0000000000000000    8.3619257000000005
Gd Fe Co
6 8 15
direct
   0.2145030000000000    0.2145030000000000    0.7848430000000000 Gd
   0.2145030000000000    0.7861510000000000    0.7848430000000000 Gd
   0.2109320000000000    0.7873760000000000    0.2143160000000000 Gd
   0.7873760000000000    0.2109320000000000    0.2143160000000000 Gd
   0.7861510000000000    0.2145030000000000    0.7848430000000000 Gd
   0.7873760000000000    0.7873760000000000    0.2143160000000000 Gd
   0.0053650000000000    0.4982940000000000    0.9980470000000000 Fe
   0.4982940000000000    0.4982940000000000    0.9980470000000000 Fe
   0.4987820000000000    0.4987820000000000    0.5036550000000000 Fe
   0.4996700000000000    0.9993450000000000    0.5016400000000000 Fe
   0.9993450000000000    0.4996700000000000    0.5016400000000000 Fe
   0.4982940000000000    0.0053650000000000    0.9980470000000000 Fe
   0.6239980000000001    0.6239980000000001    0.1280080000000000 Fe
   0.9993450000000000    0.9993450000000000    0.5016400000000000 Fe
   0.1764770000000000    0.1764770000000000    0.1785250000000000 Co
   0.8228400000000000    0.8228400000000000    0.8247920000000000 Co
   0.6233300000000001    0.1297580000000000    0.6235820000000000 Co
   0.8235080000000000    0.8235080000000000    0.5294759999999999 Co
   0.8675240000000000    0.3795880000000000    0.3732990000000000 Co
   0.1764770000000000    0.4685230000000000    0.1785250000000000 Co
   0.4685230000000000    0.1764770000000000    0.1785250000000000 Co
   0.3795880000000000    0.3795880000000000    0.3732990000000000 Co
   0.5295270000000000    0.8228400000000000    0.8247920000000000 Co
   0.1297580000000000    0.6233300000000001    0.6235820000000000 Co
   0.8228400000000000    0.5295270000000000    0.8247920000000000 Co
   0.3768740000000000    0.3768740000000000    0.8693790000000000 Co
   0.1758850000000000    0.1758850000000000    0.4723450000000000 Co
   0.3795880000000000    0.8675240000000000    0.3732990000000000 Co
   0.6233300000000001    0.6233300000000001    0.6235820000000000 Co
