Gd4 Fe13 Ru1
1.0
   4.9555191235293279    0.0000000000000000    1.0239960985069512
   2.3719615554440381    4.3509735439177062    1.0239962044677766
   0.0000000000000000    0.0000000000000000   12.5028549699999996
Gd Fe Ru
4 13 1
direct
   0.9479100000000000    0.9479100000000000    0.1562700000000000 Gd
   0.0520900000000000    0.0520900000000000    0.8437300000000000 Gd
   0.8506650000000000    0.8506650000000000    0.4480050000000000 Gd
   0.1493350000000000    0.1493350000000000    0.5519950000000000 Gd
   0.7209510000000000    0.7209510000000000    0.8371470000000000 Fe
   0.2790490000000000    0.2790490000000000    0.1628530000000000 Fe
   0.6126530000000000    0.6126530000000000    0.1620410000000000 Fe
   0.3873470000000000    0.3873470000000000    0.8379590000000000 Fe
   0.0000000000000000    0.5000000000000000    0.0000000000000000 Fe
   0.5000000000000000    0.0000000000000000    0.0000000000000000 Fe
   0.5000000000000000    0.5000000000000000    0.0000000000000000 Fe
   0.3900210000000000    0.3900210000000000    0.3244930000000000 Fe
   0.8954630000000000    0.3900210000000000    0.3244930000000000 Fe
   0.3900210000000000    0.8954630000000000    0.3244930000000000 Fe
   0.6099790000000000    0.6099790000000000    0.6755070000000000 Fe
   0.1045370000000000    0.6099790000000000    0.6755070000000000 Fe
   0.6099790000000000    0.1045370000000000    0.6755070000000000 Fe
   0.5000000000000000    0.5000000000000000    0.5000000000000000 Ru
