Gd1 Lu1 Nb1 Fe9
1.0
   4.7624616063762124    0.0000000000000000    7.0057374554965515
   2.1557585598921776    4.2466154883772766    7.0057372332883139
   0.0000000000000000    0.0000000000000000    8.4712088600000008
Gd Lu Nb Fe
1 1 1 9
direct
   0.9993379999999999    0.9993379999999999    0.9993379999999999 Gd
   0.1429140000000000    0.1429140000000000    0.1429140000000000 Lu
   0.8574980000000000    0.8574980000000000    0.8574980000000000 Nb
   0.4146520000000000    0.4146520000000000    0.9174650000000000 Fe
   0.9174650000000000    0.4146520000000000    0.4146520000000000 Fe
   0.5853300000000000    0.0829130000000000    0.5853300000000000 Fe
   0.5853300000000000    0.5853300000000000    0.0829130000000000 Fe
   0.4146520000000000    0.9174650000000000    0.4146520000000000 Fe
   0.0829130000000000    0.5853300000000000    0.5853300000000000 Fe
   0.3327380000000000    0.3327380000000000    0.3327380000000000 Fe
   0.6667960000000001    0.6667960000000001    0.6667960000000001 Fe
   0.5003750000000000    0.5003750000000000    0.5003750000000000 Fe
