Gd1 Lu3 Co8
1.0
   4.9681620000000004    0.0000000000000000    0.0000000000000003
  -2.4840809994809367    4.3025549989374090    0.0000000000000003
   0.0000000000000000    0.0000000000000000    8.3067700000000002
Gd Lu Co
1 3 8
direct
   0.3333333333333333    0.6666666666666666    0.0651390000000000 Gd
   0.3333333333333333    0.6666666666666666    0.4356240000000000 Lu
   0.6666666666666666    0.3333333333333333    0.5643580000000000 Lu
   0.6666666666666666    0.3333333333333333    0.9352140000000000 Lu
   0.0000000000000000    0.0000000000000000    0.4994220000000000 Co
   0.0000000000000000    0.0000000000000000    0.9997720000000000 Co
   0.8327270000000000    0.1672730000000000    0.2507750000000000 Co
   0.8327270000000000    0.6654540000000000    0.2507750000000000 Co
   0.3345460000000000    0.1672730000000000    0.2507750000000000 Co
   0.1670150000000000    0.8329850000000000    0.7493820000000000 Co
   0.1670150000000000    0.3340300000000000    0.7493820000000000 Co
   0.6659700000000000    0.8329850000000000    0.7493820000000000 Co
