Gd2 Mn1 Co16
1.0
   6.2381193426017818    0.0000000000000000    0.7542102561223071
   0.6685162981520447    6.2021927026475234    0.7542103825550860
   0.0000000000000000    0.0000000000000000    6.2835464800000000
Gd Mn Co
2 1 16
direct
   0.6557750000000000    0.6557750000000000    0.6557750000000000 Gd
   0.3467100000000000    0.3467100000000000    0.3467100000000000 Gd
   0.0975880000000000    0.0975880000000000    0.0975880000000000 Mn
   0.7108970000000000    0.2889420000000000    0.9988280000000000 Co
   0.9988280000000000    0.7108970000000000    0.2889420000000000 Co
   0.2889420000000000    0.9988280000000000    0.7108970000000000 Co
   0.9988280000000000    0.2889420000000000    0.7108970000000000 Co
   0.7108970000000000    0.9988280000000000    0.2889420000000000 Co
   0.2889420000000000    0.7108970000000000    0.9988280000000000 Co
   0.3483090000000000    0.3483090000000000    0.8485330000000000 Co
   0.8485330000000000    0.3483090000000000    0.3483090000000000 Co
   0.3483090000000000    0.8485330000000000    0.3483090000000000 Co
   0.6541000000000000    0.6541000000000000    0.1514620000000000 Co
   0.1514620000000000    0.6541000000000000    0.6541000000000000 Co
   0.6541000000000000    0.1514620000000000    0.6541000000000000 Co
   0.9974030000000000    0.9974030000000000    0.5045290000000000 Co
   0.5045290000000000    0.9974030000000000    0.9974030000000000 Co
   0.9974030000000000    0.5045290000000000    0.9974030000000000 Co
   0.8984470000000000    0.8984470000000000    0.8984470000000000 Co
