Gd2 Ti1 Fe11 P7
1.0
   9.0843624100000007    0.0000000000000000    0.0000000000000006
  -4.6610469942517501    7.8793379389106173    0.0000000000000006
   0.0000000000000000    0.0000000000000000    3.6499980000000001
Gd Ti Fe P
2 1 11 7
direct
   0.6729130000000000    0.3313720000000000    0.0000000000000000 Gd
   0.3325100000000000    0.6707840000000000    0.5000000000000000 Gd
   0.1107520000000000    0.2154750000000000    0.5000000000000000 Ti
   0.0547330000000000    0.6327870000000000    0.0000000000000000 Fe
   0.5722960000000000    0.9452260000000000    0.0000000000000000 Fe
   0.3834650000000000    0.4327240000000000    0.0000000000000000 Fe
   0.2770900000000000    0.1199960000000000    0.0000000000000000 Fe
   0.8399640000000000    0.7212690000000000    0.0000000000000000 Fe
   0.8787970000000001    0.1496210000000000    0.0000000000000000 Fe
   0.4338390000000000    0.0460870000000000    0.5000000000000000 Fe
   0.6121200000000000    0.5661400000000000    0.5000000000000000 Fe
   0.9508840000000000    0.3865290000000000    0.5000000000000000 Fe
   0.0928770000000000    0.8792200000000000    0.5000000000000000 Fe
   0.7779710000000000    0.8996280000000000    0.5000000000000000 Fe
   0.2960590000000000    0.8888490000000000    0.0000000000000000 P
   0.5954050000000000    0.7160970000000000    0.0000000000000000 P
   0.1055410000000000    0.4161960000000000    0.0000000000000000 P
   0.4127970000000000    0.2802510000000000    0.5000000000000000 P
   0.8919960000000000    0.6010240000000000    0.5000000000000000 P
   0.7122710000000000    0.1104170000000000    0.5000000000000000 P
   0.9957190000000000    0.9903080000000000    0.0000000000000000 P
