Gd2 Y2 Fe11 Co3
1.0
   4.9621454781354855    0.0000000000000000    1.0310213347002515
   2.3509494489784788    4.3652591835079253    1.0250491687170125
   0.0000000000000000    0.0000000000000000   12.4858480800000002
Gd Y Fe Co
2 2 11 3
direct
   0.1501830000000000    0.1488490000000000    0.5510810000000000 Gd
   0.8505819999999999    0.8512430000000000    0.4475460000000000 Gd
   0.0522800000000000    0.0522290000000000    0.8432150000000000 Y
   0.9480110000000000    0.9478560000000000    0.1559910000000000 Y
   0.2796690000000000    0.2789740000000000    0.1644190000000000 Fe
   0.7204390000000001    0.7198600000000001    0.8355910000000000 Fe
   0.3887980000000000    0.3891430000000000    0.8367840000000000 Fe
   0.6112200000000000    0.6112990000000000    0.1634400000000000 Fe
   0.4997870000000000    0.0002650000000000    0.0001630000000000 Fe
   0.9996940000000000    0.5000040000000000    0.0001710000000000 Fe
   0.1095200000000000    0.6094480000000000    0.6716720000000000 Fe
   0.6095330000000000    0.6094920000000000    0.6715740000000000 Fe
   0.6096600000000000    0.1088840000000000    0.6718020000000000 Fe
   0.8900320000000000    0.3907210000000000    0.3287310000000000 Fe
   0.3905810000000000    0.3906440000000000    0.3287300000000000 Fe
   0.4996000000000000    0.4999140000000000    0.5010289999999999 Co
   0.4999550000000000    0.5001740000000000    0.0001160000000000 Co
   0.3904550000000000    0.8909990000000000    0.3279430000000000 Co
