Gd2 Fe7 Si4 Os1
1.0
   6.8085087599999996    0.0000000000000000    0.0000000000000004
   0.0268842959974809    7.3071255839644449    0.0000000000000004
   0.0000000000000000    0.0000000000000000    3.8357169999999998
Gd Fe Si Os
2 7 4 1
direct
   0.4977740000000000    0.4984220000000000    0.5000000000000000 Gd
   0.9996580000000000    0.9996850000000000    0.0000000000000000 Gd
   0.3436790000000000    0.1012430000000000    0.5000000000000000 Fe
   0.1462530000000000    0.6010780000000000    0.0000000000000000 Fe
   0.8535980000000000    0.3969870000000000    0.0000000000000000 Fe
   0.9297540000000000    0.6501620000000000    0.5000000000000000 Fe
   0.0788820000000000    0.3479270000000000    0.5000000000000000 Fe
   0.5753290000000000    0.1553170000000000    0.0000000000000000 Fe
   0.4191040000000000    0.8450450000000000    0.0000000000000000 Fe
   0.7724280000000000    0.2105450000000000    0.5000000000000000 Si
   0.2334640000000000    0.7967570000000000    0.5000000000000000 Si
   0.2659870000000000    0.2957570000000000    0.0000000000000000 Si
   0.7353030000000000    0.6974359999999999    0.0000000000000000 Si
   0.6487880000000000    0.9036390000000000    0.5000000000000000 Os
