Gd1 Fe11 W1
1.0
   4.3893327536288078    0.0000000000000000   -1.7165328914312570
   2.1724383031146393    6.0255271182347991   -0.9151056745206803
   0.0000000000000000    0.0000000000000000    6.4702305700000000
Gd Fe W
1 11 1
direct
   0.0060770000000000    0.9939230000000000    0.0060770000000000 Gd
   0.7296080000000000    0.7703920000000000    0.2296080000000000 Fe
   0.2720760000000000    0.2279240000000000    0.7720760000000000 Fe
   0.4986680000000000    0.7786270000000000    0.7759620000000000 Fe
   0.4986680000000000    0.2240380000000000    0.2213730000000000 Fe
   0.5009390000000000    0.9983610000000001    0.5009320000000000 Fe
   0.0016310000000000    0.9983610000000001    0.5009320000000000 Fe
   0.5009390000000000    0.4990680000000000    0.0016390000000000 Fe
   0.0016310000000000    0.4990680000000000    0.0016390000000000 Fe
   0.3572660000000000    0.6427340000000000    0.3572660000000000 Fe
   0.9997660000000000    0.3590950000000000    0.3586270000000000 Fe
   0.9997660000000000    0.6413730000000000    0.6409049999999999 Fe
   0.6329660000000000    0.3670340000000000    0.6329660000000000 W
