Gd5 Fe18 Co1 P12
1.0
  11.9073340000000005    0.0000000000000000    0.0000000000000007
  -5.9536669998132519   10.3120540010351167    0.0000000000000007
   0.0000000000000000    0.0000000000000000    3.6795089999999999
Gd Fe Co P
5 18 1 12
direct
   0.6666666666666666    0.3333333333333333    0.0000000000000000 Gd
   0.3333333333333333    0.6666666666666666    0.0000000000000000 Gd
   0.1842960000000000    0.1842960000000000    0.5000000000000000 Gd
   0.8157040000000000    0.0000000000000000    0.5000000000000000 Gd
   0.0000000000000000    0.8157040000000000    0.5000000000000000 Gd
   0.8182920000000000    0.1976040000000000    0.0000000000000000 Fe
   0.8023960000000000    0.6206870000000000    0.0000000000000000 Fe
   0.3793130000000000    0.1817080000000000    0.0000000000000000 Fe
   0.1976040000000000    0.8182920000000000    0.0000000000000000 Fe
   0.6206870000000000    0.8023960000000000    0.0000000000000000 Fe
   0.1817080000000000    0.3793130000000000    0.0000000000000000 Fe
   0.5572090000000000    0.5572090000000000    0.0000000000000000 Fe
   0.4427910000000000    0.0000000000000000    0.0000000000000000 Fe
   0.0000000000000000    0.4427910000000000    0.0000000000000000 Fe
   0.6396440000000000    0.1222810000000000    0.5000000000000000 Fe
   0.8777190000000000    0.5173630000000000    0.5000000000000000 Fe
   0.4826370000000000    0.3603560000000000    0.5000000000000000 Fe
   0.1222810000000000    0.6396440000000000    0.5000000000000000 Fe
   0.5173630000000000    0.8777190000000000    0.5000000000000000 Fe
   0.3603560000000000    0.4826370000000000    0.5000000000000000 Fe
   0.7152020000000000    0.7152020000000000    0.5000000000000000 Fe
   0.2847980000000000    0.0000000000000000    0.5000000000000000 Fe
   0.0000000000000000    0.2847980000000000    0.5000000000000000 Fe
   0.0000000000000000    0.0000000000000000    0.0000000000000000 Co
   0.3699530000000000    0.3699530000000000    0.0000000000000000 P
   0.6300470000000000    0.0000000000000000    0.0000000000000000 P
   0.0000000000000000    0.6300470000000000    0.0000000000000000 P
   0.8334150000000000    0.3125380000000000    0.5000000000000000 P
   0.6874620000000000    0.5208770000000000    0.5000000000000000 P
   0.4791230000000000    0.1665850000000000    0.5000000000000000 P
   0.3125380000000000    0.8334150000000000    0.5000000000000000 P
   0.5208770000000000    0.6874620000000000    0.5000000000000000 P
   0.1665850000000000    0.4791230000000000    0.5000000000000000 P
   0.8158440000000000    0.8158440000000000    0.0000000000000000 P
   0.1841560000000000    0.0000000000000000    0.0000000000000000 P
   0.0000000000000000    0.1841560000000000    0.0000000000000000 P
