Gd6 Fe4 Co19
1.0
   8.3625820710782968    0.0000000000000000   -0.0462888664308447
  -4.1807309582356149    5.9629134056694522   -4.1576532905851824
   0.0000000000000000    0.0000000000000000    8.3627113899999994
Gd Fe Co
6 4 19
direct
   0.2834340000000000    0.9980700000000000    0.2834340000000000 Gd
   0.7139410000000000    0.0000000000000000    0.2860580000000000 Gd
   0.2864240000000000    0.5752310000000000    0.2864240000000000 Gd
   0.2860580000000000    0.0000000000000000    0.7139410000000000 Gd
   0.7135750000000000    0.4247680000000000    0.7135750000000000 Gd
   0.7165660000000000    0.0019300000000000    0.7165660000000000 Gd
   0.0000000000000000    0.0000000000000000    0.0000000000000000 Fe
   0.5000010000000000    0.5000010000000000    0.0000000000000000 Fe
   0.0000000000000000    0.5000010000000000    0.5000010000000000 Fe
   0.5000010000000000    0.5000010000000000    0.5000010000000000 Fe
   0.5000010000000000    0.0000000000000000    0.0000000000000000 Co
   0.0000000000000000    0.5000010000000000    0.0000000000000000 Co
   0.6776759999999999    0.3538900000000000    0.0324870000000000 Co
   0.8756130000000000    0.7513919999999999    0.1236240000000000 Co
   0.3696250000000000    0.2465360000000000    0.1227880000000000 Co
   0.8763750000000000    0.2486070000000000    0.1243860000000000 Co
   0.6756900000000000    0.3526790000000000    0.3214210000000000 Co
   0.6785800000000000    0.6473220000000000    0.3243110000000000 Co
   0.9675140000000000    0.6461110000000000    0.3223250000000000 Co
   0.1227880000000000    0.2465360000000000    0.3696250000000000 Co
   0.0000000000000000    0.0000000000000000    0.5000010000000000 Co
   0.8772110000000000    0.7534630000000000    0.6303750000000000 Co
   0.0324870000000000    0.3538900000000000    0.6776759999999999 Co
   0.3214210000000000    0.3526790000000000    0.6756900000000000 Co
   0.3243110000000000    0.6473220000000000    0.6785800000000000 Co
   0.1243860000000000    0.2486070000000000    0.8763750000000000 Co
   0.1236240000000000    0.7513919999999999    0.8756130000000000 Co
   0.6303750000000000    0.7534630000000000    0.8772110000000000 Co
   0.3223250000000000    0.6461110000000000    0.9675140000000000 Co
