Gd1 Lu2 Fe8 Co1
1.0
   4.8484323963021279    0.0000000000000000    7.0716204951314037
   2.1914156186554350    4.3249259985243480    7.0716206380541777
   0.0000000000000000    0.0000000000000000    8.5740957600000005
Gd Lu Fe Co
1 2 8 1
direct
   0.0000000000000000    0.0000000000000000    0.0000000000000000 Gd
   0.1422720000000000    0.1422720000000000    0.1422720000000000 Lu
   0.8577280000000000    0.8577280000000000    0.8577280000000000 Lu
   0.3327110000000000    0.3327110000000000    0.3327110000000000 Fe
   0.6672890000000000    0.6672890000000000    0.6672890000000000 Fe
   0.0821630000000000    0.5832750000000000    0.5832750000000000 Fe
   0.5832750000000000    0.5832750000000000    0.0821630000000000 Fe
   0.5832750000000000    0.0821630000000000    0.5832750000000000 Fe
   0.4167250000000000    0.9178370000000000    0.4167250000000000 Fe
   0.9178370000000000    0.4167250000000000    0.4167250000000000 Fe
   0.4167250000000000    0.4167250000000000    0.9178370000000000 Fe
   0.5000000000000000    0.5000000000000000    0.5000000000000000 Co
