Gd1 Fe10 Si2
1.0
   4.3927430506369909    0.0000000000000000   -1.7604223880380001
   2.1784959862352040    5.9040860752143054   -0.9248142860712234
   0.0000000000000000    0.0000000000000000    6.3607671400000001
Gd Fe Si
1 10 2
direct
   0.0000000000000000    0.0000000000000000    0.0000000000000000 Gd
   0.6385150000000001    0.3614850000000000    0.6385150000000001 Fe
   0.3614850000000000    0.6385150000000001    0.3614850000000000 Fe
   0.0000000000000000    0.3548510000000000    0.3548510000000000 Fe
   0.0000000000000000    0.6451490000000000    0.6451490000000000 Fe
   0.5000000000000000    0.7887810000000000    0.7887810000000000 Fe
   0.5000000000000000    0.2112190000000000    0.2112190000000000 Fe
   0.5000000000000000    0.0000000000000000    0.5000000000000000 Fe
   0.0000000000000000    0.0000000000000000    0.5000000000000000 Fe
   0.5000000000000000    0.5000000000000000    0.0000000000000000 Fe
   0.0000000000000000    0.5000000000000000    0.0000000000000000 Fe
   0.7370490000000000    0.7629510000000000    0.2370490000000000 Si
   0.2629510000000000    0.2370490000000000    0.7629510000000000 Si
