Gd4 Lu2 Fe18 P12
1.0
   3.6722450000000002    0.0000000000000000    0.0000000000000002
  -0.0000000000000006   10.4488559999999993    0.0000000000000006
   0.0000000000000000    0.0000000000000000   12.1657650000000004
Gd Lu Fe P
4 2 18 12
direct
   0.0000000000000000    0.5000000000000000    0.5264120000000000 Gd
   0.5000000000000000    0.0000000000000000    0.4739760000000000 Gd
   0.5000000000000000    0.8202650000000000    0.2073550000000000 Gd
   0.5000000000000000    0.1797350000000000    0.2073550000000000 Gd
   0.0000000000000000    0.6793890000000000    0.7924930000000000 Lu
   0.0000000000000000    0.3206110000000000    0.7924930000000000 Lu
   0.5000000000000000    0.5000000000000000    0.1533750000000000 Fe
   0.0000000000000000    0.0000000000000000    0.8464010000000000 Fe
   0.5000000000000000    0.5000000000000000    0.6995780000000000 Fe
   0.0000000000000000    0.0000000000000000    0.3009740000000000 Fe
   0.0000000000000000    0.5000000000000000    0.9888810000000000 Fe
   0.5000000000000000    0.0000000000000000    0.0100110000000000 Fe
   0.5000000000000000    0.3276680000000000    0.9957780000000001 Fe
   0.5000000000000000    0.6723320000000000    0.9957780000000001 Fe
   0.0000000000000000    0.1729880000000000    0.0030490000000000 Fe
   0.0000000000000000    0.8270120000000000    0.0030490000000000 Fe
   0.5000000000000000    0.2996760000000000    0.4308560000000000 Fe
   0.5000000000000000    0.7003239999999999    0.4308560000000000 Fe
   0.0000000000000000    0.2008010000000000    0.5701230000000000 Fe
   0.0000000000000000    0.7991990000000000    0.5701230000000000 Fe
   0.5000000000000000    0.8818350000000000    0.7082210000000000 Fe
   0.5000000000000000    0.1181650000000000    0.7082210000000000 Fe
   0.0000000000000000    0.6178290000000000    0.2921310000000000 Fe
   0.0000000000000000    0.3821710000000000    0.2921310000000000 Fe
   0.5000000000000000    0.5000000000000000    0.8820760000000000 P
   0.0000000000000000    0.0000000000000000    0.1168120000000000 P
   0.5000000000000000    0.5000000000000000    0.3413370000000000 P
   0.0000000000000000    0.0000000000000000    0.6590150000000000 P
   0.5000000000000000    0.3071440000000000    0.6152560000000000 P
   0.5000000000000000    0.6928560000000000    0.6152560000000000 P
   0.0000000000000000    0.1931590000000000    0.3857900000000000 P
   0.0000000000000000    0.8068410000000000    0.3857900000000000 P
   0.5000000000000000    0.8502189999999999    0.8868170000000000 P
   0.5000000000000000    0.1497810000000000    0.8868170000000000 P
   0.0000000000000000    0.6490089999999999    0.1127060000000000 P
   0.0000000000000000    0.3509910000000000    0.1127060000000000 P
