Gd4 Fe20 P12
1.0
   3.6412710000000001    0.0000000000000000    0.0000000000000002
  -0.0000000000000006   10.2690219999999997    0.0000000000000006
   0.0000000000000000    0.0000000000000000   11.7904140000000002
Gd Fe P
4 20 12
direct
   0.2500000000000000    0.5806390000000000    0.7045760000000000 Gd
   0.2500000000000000    0.9193610000000000    0.2045760000000000 Gd
   0.7500000000000000    0.4194740000000000    0.2954700000000000 Gd
   0.7500000000000000    0.0805260000000000    0.7954700000000000 Gd
   0.2500000000000000    0.7081470000000000    0.9885440000000000 Fe
   0.2500000000000000    0.7918530000000000    0.4885440000000000 Fe
   0.7500000000000000    0.2918660000000000    0.0113610000000000 Fe
   0.7500000000000000    0.2081340000000000    0.5113610000000000 Fe
   0.2500000000000000    0.4054670000000000    0.4897060000000000 Fe
   0.2500000000000000    0.0945330000000000    0.9897060000000000 Fe
   0.7500000000000000    0.5944540000000000    0.5099050000000001 Fe
   0.7500000000000000    0.9055460000000000    0.0099050000000000 Fe
   0.2500000000000000    0.2194140000000000    0.1766370000000000 Fe
   0.2500000000000000    0.2805860000000000    0.6766370000000000 Fe
   0.7500000000000000    0.7809020000000000    0.8233549999999999 Fe
   0.7500000000000000    0.7190980000000000    0.3233550000000000 Fe
   0.2500000000000000    0.8763130000000000    0.7013940000000000 Fe
   0.2500000000000000    0.6236870000000000    0.2013940000000000 Fe
   0.7500000000000000    0.1242320000000000    0.2987800000000000 Fe
   0.7500000000000000    0.3757680000000000    0.7987800000000000 Fe
   0.2500000000000000    0.4629430000000000    0.9324820000000000 Fe
   0.2500000000000000    0.0370570000000000    0.4324820000000000 Fe
   0.7500000000000000    0.5365860000000000    0.0678070000000000 Fe
   0.7500000000000000    0.9634140000000000    0.5678070000000000 Fe
   0.2500000000000000    0.4216050000000000    0.1132820000000000 P
   0.2500000000000000    0.0783950000000000    0.6132820000000000 P
   0.7500000000000000    0.5783990000000000    0.8871960000000000 P
   0.7500000000000000    0.9216010000000000    0.3871960000000000 P
   0.2500000000000000    0.2650950000000000    0.8714150000000001 P
   0.2500000000000000    0.2349050000000000    0.3714150000000000 P
   0.7500000000000000    0.7344430000000000    0.1283280000000000 P
   0.7500000000000000    0.7655570000000000    0.6283280000000000 P
   0.2500000000000000    0.6001379999999999    0.3958460000000000 P
   0.2500000000000000    0.8998620000000001    0.8958460000000000 P
   0.7500000000000000    0.3994080000000000    0.6039150000000000 P
   0.7500000000000000    0.1005920000000000    0.1039150000000000 P
