Gd2 Y4 Fe16 Co2
1.0
   5.1229120000000004    0.0000000000000000    0.0000000000000003
  -2.5614550010261841    4.4365720020416202    0.0000000000000003
   0.0000000000000000    0.0000000000000000   16.2006779999999999
Gd Y Fe Co
2 4 16 2
direct
   0.3333333333333333    0.6666666666666666    0.9631640000000000 Gd
   0.3333333333333333    0.6666666666666666    0.7499560000000000 Gd
   0.6666666666666666    0.3333333333333333    0.0370010000000000 Y
   0.6666666666666666    0.3333333333333333    0.4629750000000000 Y
   0.3333333333333333    0.6666666666666666    0.5370400000000000 Y
   0.6666666666666666    0.3333333333333333    0.2499810000000000 Y
   0.1666950000000000    0.8333050000000000    0.3717690000000000 Fe
   0.1666950000000000    0.3333900000000000    0.3717690000000000 Fe
   0.6666666666666666    0.8333050000000000    0.3717690000000000 Fe
   0.8332290000000000    0.1667710000000000    0.6280730000000000 Fe
   0.8332290000000000    0.6664580000000000    0.6280730000000000 Fe
   0.3335420000000000    0.1667710000000000    0.6280730000000000 Fe
   0.8334350000000000    0.1665650000000000    0.8719490000000000 Fe
   0.8334350000000000    0.6668690000000000    0.8719490000000000 Fe
   0.3331310000000000    0.1665650000000000    0.8719490000000000 Fe
   0.1668560000000000    0.8331440000000000    0.1282810000000000 Fe
   0.1668560000000000    0.3337110000000000    0.1282810000000000 Fe
   0.6662890000000000    0.8331440000000000    0.1282810000000000 Fe
   0.3333333333333333    0.6666666666666666    0.2499170000000000 Fe
   0.6666666666666666    0.3333333333333333    0.7500900000000000 Fe
   0.0000000000000000    0.0000000000000000    0.2497610000000000 Fe
   0.0000000000000000    0.0000000000000000    0.7499830000000000 Fe
   0.0000000000000000    0.0000000000000000    0.5000019999999999 Co
   0.0000000000000000    0.0000000000000000    0.9999150000000000 Co
