Gd1 Y5 Fe18
1.0
   5.1127849999999997    0.0000000000000000    0.0000000000000003
  -2.5563919972722351    4.4278019958849981    0.0000000000000003
   0.0000000000000000    0.0000000000000000   16.1465780000000017
Gd Y Fe
1 5 18
direct
   0.3333333333333333    0.6666666666666666    0.9629690000000000 Gd
   0.6666666666666666    0.3333333333333333    0.0368070000000000 Y
   0.6666666666666666    0.3333333333333333    0.4629350000000000 Y
   0.3333333333333333    0.6666666666666666    0.5369600000000000 Y
   0.3333333333333333    0.6666666666666666    0.7501330000000000 Y
   0.6666666666666666    0.3333333333333333    0.2500610000000000 Y
   0.1666050000000000    0.8333950000000000    0.3718610000000000 Fe
   0.1666050000000000    0.3332100000000000    0.3718610000000000 Fe
   0.6667900000000000    0.8333950000000000    0.3718610000000000 Fe
   0.8333930000000001    0.1666070000000000    0.6281340000000000 Fe
   0.8333930000000001    0.6667870000000000    0.6281340000000000 Fe
   0.3332130000000000    0.1666070000000000    0.6281340000000000 Fe
   0.8333940000000000    0.1666060000000000    0.8720990000000000 Fe
   0.8333940000000000    0.6667870000000000    0.8720990000000000 Fe
   0.3332130000000000    0.1666060000000000    0.8720990000000000 Fe
   0.1667850000000000    0.8332150000000000    0.1279900000000000 Fe
   0.1667850000000000    0.3335700000000000    0.1279900000000000 Fe
   0.6664300000000000    0.8332150000000000    0.1279900000000000 Fe
   0.3333333333333333    0.6666666666666666    0.2500810000000000 Fe
   0.6666666666666666    0.3333333333333333    0.7499830000000000 Fe
   0.0000000000000000    0.0000000000000000    0.2500010000000000 Fe
   0.0000000000000000    0.0000000000000000    0.7499749999999999 Fe
   0.0000000000000000    0.0000000000000000    0.4999690000000000 Fe
   0.0000000000000000    0.0000000000000000    0.9998730000000000 Fe
