Gd2 Fe17 N2
1.0
   6.3686886801958087    0.0000000000000000    0.7517863642851108
   0.6852458724017457    6.3317164813035181    0.7517863642851108
   0.0000000000000000    0.0000000000000000    6.4698218699999996
Gd Fe N
2 17 2
direct
   0.3428690000000000    0.3428690000000000    0.3402270000000000 Gd
   0.6571310000000000    0.6571310000000000    0.6597730000000001 Gd
   0.7123800000000000    0.2876200000000000    0.0000000000000000 Fe
   0.2819880000000000    0.0009930000000000    0.7155830000000000 Fe
   0.9990070000000000    0.7180120000000000    0.2844170000000000 Fe
   0.7180120000000000    0.9990070000000000    0.2844170000000000 Fe
   0.0009930000000000    0.2819880000000000    0.7155830000000000 Fe
   0.2876200000000000    0.7123800000000000    0.0000000000000000 Fe
   0.0000000000000000    0.0000000000000000    0.5000000000000000 Fe
   0.0000000000000000    0.5000000000000000    0.0000000000000000 Fe
   0.5000000000000000    0.0000000000000000    0.0000000000000000 Fe
   0.6549779999999999    0.6549779999999999    0.1453400000000000 Fe
   0.6537770000000001    0.1482040000000000    0.6598840000000000 Fe
   0.1482040000000000    0.6537770000000001    0.6598840000000000 Fe
   0.3450220000000000    0.3450220000000000    0.8546600000000000 Fe
   0.3462230000000000    0.8517960000000000    0.3401160000000000 Fe
   0.8517960000000000    0.3462230000000000    0.3401160000000000 Fe
   0.0933590000000000    0.0933590000000000    0.0914640000000000 Fe
   0.9066410000000000    0.9066410000000000    0.9085360000000000 Fe
   0.5000000000000000    0.0000000000000000    0.5000000000000000 N
   0.0000000000000000    0.5000000000000000    0.5000000000000000 N
