Gd6 Nb1 Co22
1.0
   7.2411210020800567    0.0000000000000000    4.1806640006432181
   2.4137080000889508    6.8269939993849889    4.1806639993794024
   0.0000000000000000    0.0000000000000000    8.3613250000000008
Gd Nb Co
6 1 22
direct
   0.7872220000000000    0.2127780000000000    0.7872220000000000 Gd
   0.2127780000000000    0.2127780000000000    0.7872220000000000 Gd
   0.7872220000000000    0.7872220000000000    0.2127780000000000 Gd
   0.7872220000000000    0.2127780000000000    0.2127780000000000 Gd
   0.2127780000000000    0.7872220000000000    0.7872220000000000 Gd
   0.2127780000000000    0.7872220000000000    0.2127780000000000 Gd
   0.5000000000000000    0.5000000000000000    0.5000000000000000 Nb
   0.8231200000000000    0.8231200000000000    0.8231200000000000 Co
   0.4693600000000000    0.1768800000000000    0.1768800000000000 Co
   0.1768800000000000    0.1768800000000000    0.4693600000000000 Co
   0.1768800000000000    0.4693600000000000    0.1768800000000000 Co
   0.8231200000000000    0.8231200000000000    0.5306400000000000 Co
   0.8231200000000000    0.5306400000000000    0.8231200000000000 Co
   0.0000000000000000    0.5000000000000000    0.0000000000000000 Co
   0.5000000000000000    0.0000000000000000    0.0000000000000000 Co
   0.0000000000000000    0.5000000000000000    0.5000000000000000 Co
   0.5000000000000000    0.0000000000000000    0.5000000000000000 Co
   0.0000000000000000    0.0000000000000000    0.5000000000000000 Co
   0.5000000000000000    0.5000000000000000    0.0000000000000000 Co
   0.3742150000000000    0.3742150000000000    0.3742150000000000 Co
   0.1226460000000000    0.6257850000000000    0.6257840000000000 Co
   0.6257840000000000    0.1226460000000000    0.6257840000000000 Co
   0.6257850000000000    0.6257850000000000    0.1226460000000000 Co
   0.3742160000000000    0.8773540000000000    0.3742150000000000 Co
   0.3742160000000000    0.3742150000000000    0.8773530000000000 Co
   0.8773530000000000    0.3742160000000000    0.3742150000000000 Co
   0.6257850000000000    0.6257850000000000    0.6257840000000000 Co
   0.1768800000000000    0.1768800000000000    0.1768800000000000 Co
   0.5306400000000000    0.8231200000000000    0.8231200000000000 Co
