Gd4 Y2 Fe18
1.0
   5.0814430000000002    0.0000000000000000    0.0000000000000003
  -2.5407210011375065    4.4006590023539625    0.0000000000000003
   0.0000000000000000    0.0000000000000000   16.0735349999999997
Gd Y Fe
4 2 18
direct
   0.3333333333333333    0.6666666666666666    0.5367230000000000 Gd
   0.3333333333333333    0.6666666666666666    0.9632610000000000 Gd
   0.6666666666666666    0.3333333333333333    0.0366690000000000 Gd
   0.6666666666666666    0.3333333333333333    0.4626940000000000 Gd
   0.3333333333333333    0.6666666666666666    0.7508870000000000 Y
   0.6666666666666666    0.3333333333333333    0.2496860000000000 Y
   0.1669780000000000    0.8330220000000000    0.3728540000000000 Fe
   0.1669780000000000    0.3339560000000000    0.3728540000000000 Fe
   0.6660440000000000    0.8330220000000000    0.3728540000000000 Fe
   0.8327170000000000    0.1672830000000000    0.6272960000000000 Fe
   0.8327170000000000    0.6654320000000000    0.6272960000000000 Fe
   0.3345680000000000    0.1672830000000000    0.6272960000000000 Fe
   0.8326220000000000    0.1673780000000000    0.8736200000000000 Fe
   0.8326220000000000    0.6652420000000000    0.8736200000000000 Fe
   0.3347580000000000    0.1673780000000000    0.8736200000000000 Fe
   0.1673070000000000    0.8326930000000000    0.1263460000000000 Fe
   0.1673070000000000    0.3346140000000000    0.1263460000000000 Fe
   0.6653860000000000    0.8326930000000000    0.1263460000000000 Fe
   0.3333333333333333    0.6666666666666666    0.2497740000000000 Fe
   0.6666666666666666    0.3333333333333333    0.7503480000000000 Fe
   0.0000000000000000    0.0000000000000000    0.2495410000000000 Fe
   0.0000000000000000    0.0000000000000000    0.7504390000000000 Fe
   0.0000000000000000    0.0000000000000000    0.4997640000000000 Fe
   0.0000000000000000    0.0000000000000000    0.9998690000000000 Fe
