Gd1 Lu1 Zr1 Fe9
1.0
   4.8017252517545632    0.0000000000000000    7.0339374129475081
   2.1719501728831370    4.2824281982298924    7.0339375528321950
   0.0000000000000000    0.0000000000000000    8.5166227800000005
Gd Lu Zr Fe
1 1 1 9
direct
   0.9996810000000000    0.9996810000000000    0.9996810000000000 Gd
   0.1421960000000000    0.1421960000000000    0.1421960000000000 Lu
   0.8576840000000000    0.8576840000000000    0.8576840000000000 Zr
   0.5001860000000000    0.5001860000000000    0.5001860000000000 Fe
   0.3324480000000000    0.3324480000000000    0.3324480000000000 Fe
   0.6672670000000001    0.6672670000000001    0.6672670000000001 Fe
   0.0826200000000000    0.5840490000000000    0.5840490000000000 Fe
   0.5840490000000000    0.5840490000000000    0.0826200000000000 Fe
   0.5840490000000000    0.0826200000000000    0.5840490000000000 Fe
   0.4160800000000000    0.9176609999999999    0.4160800000000000 Fe
   0.9176609999999999    0.4160800000000000    0.4160800000000000 Fe
   0.4160800000000000    0.4160800000000000    0.9176609999999999 Fe
