Gd1 Sc1 Ta1 Fe9
1.0
   4.7252278136070416    0.0000000000000000    6.9366750901324110
   2.1381412867476768    4.2138017525741889    6.9366743752472333
   0.0000000000000000    0.0000000000000000    8.3931667500000007
Gd Sc Ta Fe
1 1 1 9
direct
   0.0000060000000000    0.0000060000000000    0.0000060000000000 Gd
   0.8568200000000000    0.8568200000000000    0.8568200000000000 Sc
   0.1435500000000000    0.1435500000000000    0.1435500000000000 Ta
   0.4999180000000000    0.4999180000000000    0.4999180000000000 Fe
   0.3329290000000000    0.3329290000000000    0.3329290000000000 Fe
   0.6670520000000000    0.6670520000000000    0.6670520000000000 Fe
   0.0821740000000000    0.5868570000000000    0.5868570000000000 Fe
   0.5868570000000000    0.5868570000000000    0.0821740000000000 Fe
   0.5868570000000000    0.0821740000000000    0.5868570000000000 Fe
   0.4128960000000000    0.9180460000000000    0.4128960000000000 Fe
   0.9180460000000000    0.4128960000000000    0.4128960000000000 Fe
   0.4128960000000000    0.4128960000000000    0.9180460000000000 Fe
