Nd1 Gd2 Co9
1.0
   4.7997466895069074    0.0000000000000000    1.4633737372685192
   2.1767925971172839    4.2777492697915456    1.4633736155579340
   0.0000000000000000    0.0000000000000000    8.6030796200000008
Nd Gd Co
1 2 9
direct
   0.0000000000000000    0.0000000000000000    0.0000000000000000 Nd
   0.8594720000000000    0.8594720000000000    0.4215850000000000 Gd
   0.1405280000000000    0.1405280000000000    0.5784150000000000 Gd
   0.4154910000000000    0.4154910000000000    0.2482690000000000 Co
   0.9207500000000000    0.4154910000000000    0.2482690000000000 Co
   0.4154910000000000    0.9207500000000000    0.2482690000000000 Co
   0.5845089999999999    0.5845089999999999    0.7517310000000000 Co
   0.0792500000000000    0.5845089999999999    0.7517310000000000 Co
   0.5845089999999999    0.0792500000000000    0.7517310000000000 Co
   0.6649230000000000    0.6649230000000000    0.0052310000000000 Co
   0.3350770000000000    0.3350770000000000    0.9947690000000000 Co
   0.5000000000000000    0.5000000000000000    0.5000000000000000 Co
