Gd6 Fe14 B4
1.0
   5.0890019999999998    0.0000000000000000    0.0000000000000003
  -2.5445010003844173    4.4072050001408671    0.0000000000000003
   0.0000000000000000    0.0000000000000000   14.4567060000000005
Gd Fe B
6 14 4
direct
   0.3333333333333333    0.6666666666666666    0.0342280000000000 Gd
   0.3333333333333333    0.6666666666666666    0.2505970000000000 Gd
   0.3333333333333333    0.6666666666666666    0.4660770000000000 Gd
   0.6666666666666666    0.3333333333333333    0.9644210000000000 Gd
   0.6666666666666666    0.3333333333333333    0.5349220000000000 Gd
   0.6666666666666666    0.3333333333333333    0.7496390000000001 Gd
   0.8337869999999999    0.6675759999999999    0.3552160000000000 Fe
   0.3324240000000000    0.1662130000000000    0.3552160000000000 Fe
   0.0000000000000000    0.0000000000000000    0.9998650000000000 Fe
   0.0000000000000000    0.0000000000000000    0.5004090000000000 Fe
   0.8336730000000000    0.1663270000000000    0.1460900000000000 Fe
   0.6676330000000000    0.8338160000000000    0.6454660000000000 Fe
   0.1661840000000000    0.3323670000000000    0.6454660000000000 Fe
   0.8336730000000000    0.6673470000000000    0.1460900000000000 Fe
   0.3326530000000000    0.1663270000000000    0.1460900000000000 Fe
   0.6685219999999999    0.8342600000000000    0.8531640000000000 Fe
   0.1657400000000000    0.3314780000000000    0.8531640000000000 Fe
   0.1661840000000000    0.8338160000000000    0.6454660000000000 Fe
   0.1657400000000000    0.8342600000000000    0.8531640000000000 Fe
   0.8337869999999999    0.1662130000000000    0.3552160000000000 Fe
   0.6666666666666666    0.3333333333333333    0.2506510000000000 B
   0.3333333333333333    0.6666666666666666    0.7496159999999999 B
   0.0000000000000000    0.0000000000000000    0.7492240000000000 B
   0.0000000000000000    0.0000000000000000    0.2505430000000000 B
