Gd1 Fe7 Re5
1.0
   4.4156430859518272    0.0000000000000000    1.7019748385744911
   2.2499882580254145    6.1376679054425214    0.7415916001065340
   0.0000000000000000    0.0000000000000000    6.5790092600000003
Gd Fe Re
1 7 5
direct
   0.9896760000000000    0.0103240000000000    0.0103240000000000 Gd
   0.2902480000000000    0.2097520000000000    0.2097520000000000 Fe
   0.5027490000000000    0.2221600000000000    0.7723420000000000 Fe
   0.5027490000000000    0.7723420000000000    0.2221600000000000 Fe
   0.0042970000000000    0.0013040000000000    0.4930980000000000 Fe
   0.5013000000000000    0.0013040000000000    0.4930980000000000 Fe
   0.5013000000000000    0.4930980000000000    0.0013040000000000 Fe
   0.0042970000000000    0.4930980000000000    0.0013040000000000 Fe
   0.0052950000000000    0.3533330000000000    0.6360770000000000 Re
   0.0052950000000000    0.6360770000000000    0.3533330000000000 Re
   0.6394470000000000    0.3605530000000000    0.3605530000000000 Re
   0.3504130000000000    0.6495870000000000    0.6495870000000000 Re
   0.7029320000000000    0.7970680000000000    0.7970680000000000 Re
