Gd1 Lu1 Be3 Fe14 C3
1.0
   6.2886014837488249    0.0000000000000000    0.7296944052597056
   0.6499207142875318    6.2549270948164741    0.7296951800909910
   0.0000000000000000    0.0000000000000000    6.3307953000000001
Gd Lu Be Fe C
1 1 3 14 3
direct
   0.3446800000000000    0.3446800000000000    0.3446800000000000 Gd
   0.6560820000000001    0.6560820000000001    0.6560820000000001 Lu
   0.0000240000000000    0.0000240000000000    0.5000730000000000 Be
   0.5000730000000000    0.0000240000000000    0.0000240000000000 Be
   0.0000240000000000    0.5000730000000000    0.0000240000000000 Be
   0.7196700000000000    0.2806940000000000    0.9995810000000001 Fe
   0.9995810000000001    0.7196700000000000    0.2806940000000000 Fe
   0.2806940000000000    0.9995810000000001    0.7196700000000000 Fe
   0.9995810000000001    0.2806940000000000    0.7196700000000000 Fe
   0.7196700000000000    0.9995810000000001    0.2806940000000000 Fe
   0.2806940000000000    0.7196700000000000    0.9995810000000001 Fe
   0.3389820000000000    0.8596220000000000    0.3389820000000000 Fe
   0.3389820000000000    0.3389820000000000    0.8596220000000000 Fe
   0.8596220000000000    0.3389820000000000    0.3389820000000000 Fe
   0.6614920000000000    0.1393250000000000    0.6614920000000000 Fe
   0.6614920000000000    0.6614920000000000    0.1393250000000000 Fe
   0.1393250000000000    0.6614920000000000    0.6614920000000000 Fe
   0.9014290000000000    0.9014290000000000    0.9014290000000000 Fe
   0.0981440000000000    0.0981440000000000    0.0981440000000000 Fe
   0.5011730000000000    0.5011730000000000    0.9974120000000000 C
   0.9974120000000000    0.5011730000000000    0.5011730000000000 C
   0.5011730000000000    0.9974120000000000    0.5011730000000000 C
