Gd2 Mn1 Co16
1.0
   6.2254568780533717    0.0000000000000000    0.7561467359555657
   0.6698626877241894    6.1893122180328772    0.7561468511481859
   0.0000000000000000    0.0000000000000000    6.2712099500000003
Gd Mn Co
2 1 16
direct
   0.6558700000000000    0.6558700000000000    0.6558700000000000 Gd
   0.3467310000000000    0.3467310000000000    0.3467310000000000 Gd
   0.0969650000000000    0.0969650000000000    0.0969650000000000 Mn
   0.7103360000000000    0.2892450000000000    0.9987250000000000 Co
   0.9987250000000000    0.7103360000000000    0.2892450000000000 Co
   0.2892450000000000    0.9987250000000000    0.7103360000000000 Co
   0.9987250000000000    0.2892450000000000    0.7103360000000000 Co
   0.7103360000000000    0.9987250000000000    0.2892450000000000 Co
   0.2892450000000000    0.7103360000000000    0.9987250000000000 Co
   0.3490270000000000    0.3490270000000000    0.8485700000000000 Co
   0.8485700000000000    0.3490270000000000    0.3490270000000000 Co
   0.3490270000000000    0.8485700000000000    0.3490270000000000 Co
   0.6533830000000000    0.6533830000000000    0.1517030000000000 Co
   0.1517030000000000    0.6533830000000000    0.6533830000000000 Co
   0.6533830000000000    0.1517030000000000    0.6533830000000000 Co
   0.9975870000000000    0.9975870000000000    0.5047640000000000 Co
   0.5047640000000000    0.9975870000000000    0.9975870000000000 Co
   0.9975870000000000    0.5047640000000000    0.9975870000000000 Co
   0.8987930000000000    0.8987930000000000    0.8987930000000000 Co
