Gd1 Co4 Si1
1.0
   3.7120940000000000    0.0000000000000000    0.0000000000000002
  -0.0000000000000003    4.3970835427841211    2.5390839718910119
   0.0000000000000000    0.0000000000000000    5.0744666199999999
Gd Co Si
1 4 1
direct
   0.0000000000000000    0.0000810000000000    0.9999940000000000 Gd
   0.0000000000000000    0.6666666666666666    0.6668050000000000 Co
   0.5000000000000000    0.4999280000000000    0.5000010000000000 Co
   0.5000000000000000    0.4998920000000000    0.0000750000000000 Co
   0.5000000000000000    0.9998089999999999    0.5000670000000000 Co
   0.0000000000000000    0.3335110000000000    0.3331580000000000 Si
