Gd4 Y1 Fe18 Co1 P12
1.0
  11.9091240200000001    0.0000000000000000    0.0000000000000007
  -5.9557296732271707   10.3129299533739189    0.0000000000000007
   0.0000000000000000    0.0000000000000000    3.6830490000000000
Gd Y Fe Co P
4 1 18 1 12
direct
   0.6666666666666666    0.3333810000000000    0.0000000000000000 Gd
   0.3333810000000000    0.6666666666666666    0.0000000000000000 Gd
   0.8154460000000000    0.9999240000000000    0.5000000000000000 Gd
   0.9999240000000000    0.8154460000000000    0.5000000000000000 Gd
   0.1843150000000000    0.1843150000000000    0.5000000000000000 Y
   0.8180330000000000    0.1976890000000000    0.0000000000000000 Fe
   0.8022870000000000    0.6205330000000000    0.0000000000000000 Fe
   0.3802090000000000    0.1816750000000000    0.0000000000000000 Fe
   0.1976890000000000    0.8180330000000000    0.0000000000000000 Fe
   0.6205330000000000    0.8022870000000000    0.0000000000000000 Fe
   0.1816750000000000    0.3802090000000000    0.0000000000000000 Fe
   0.5573310000000000    0.5573310000000000    0.0000000000000000 Fe
   0.4428080000000000    0.9999500000000000    0.0000000000000000 Fe
   0.9999500000000000    0.4428080000000000    0.0000000000000000 Fe
   0.6395470000000000    0.1222730000000000    0.5000000000000000 Fe
   0.8777239999999999    0.5173510000000000    0.5000000000000000 Fe
   0.4831730000000000    0.3607290000000000    0.5000000000000000 Fe
   0.1222730000000000    0.6395470000000000    0.5000000000000000 Fe
   0.5173510000000000    0.8777239999999999    0.5000000000000000 Fe
   0.3607290000000000    0.4831730000000000    0.5000000000000000 Fe
   0.7153470000000000    0.7153470000000000    0.5000000000000000 Fe
   0.2849080000000000    0.9995990000000000    0.5000000000000000 Fe
   0.9995990000000000    0.2849080000000000    0.5000000000000000 Fe
   0.9991240000000000    0.9991240000000000    0.0000000000000000 Co
   0.3709000000000000    0.3709000000000000    0.0000000000000000 P
   0.6300450000000000    0.0000000000000000    0.0000000000000000 P
   0.0000000000000000    0.6300450000000000    0.0000000000000000 P
   0.8332240000000000    0.3123930000000000    0.5000000000000000 P
   0.6877020000000000    0.5211000000000000    0.5000000000000000 P
   0.4790310000000000    0.1666550000000000    0.5000000000000000 P
   0.3123930000000000    0.8332240000000000    0.5000000000000000 P
   0.5211000000000000    0.6877020000000000    0.5000000000000000 P
   0.1666550000000000    0.4790310000000000    0.5000000000000000 P
   0.8155850000000000    0.8155850000000000    0.0000000000000000 P
   0.1842270000000000    0.9990750000000000    0.0000000000000000 P
   0.9990750000000000    0.1842270000000000    0.0000000000000000 P
