Gd2 Al3 Fe14 C3
1.0
   6.4622163727913717    0.0000000000000000    0.7346851005321707
   0.6558933871908538    6.4288441363853561    0.7346846368695186
   0.0000000000000000    0.0000000000000000    6.5038440399999997
Gd Al Fe C
2 3 14 3
direct
   0.6570190000000000    0.6570190000000000    0.6570190000000000 Gd
   0.3428230000000000    0.3428230000000000    0.3428230000000000 Gd
   0.0000760000000000    0.0000760000000000    0.4999130000000000 Al
   0.4999130000000000    0.0000760000000000    0.0000760000000000 Al
   0.0000760000000000    0.4999130000000000    0.0000760000000000 Al
   0.7142690000000000    0.2855980000000000    0.0001950000000000 Fe
   0.0001950000000000    0.7142690000000000    0.2855980000000000 Fe
   0.2855980000000000    0.0001950000000000    0.7142690000000000 Fe
   0.0001950000000000    0.2855980000000000    0.7142690000000000 Fe
   0.7142690000000000    0.0001950000000000    0.2855980000000000 Fe
   0.2855980000000000    0.7142690000000000    0.0001950000000000 Fe
   0.3450490000000000    0.3450490000000000    0.8520820000000000 Fe
   0.8520820000000000    0.3450490000000000    0.3450490000000000 Fe
   0.3450490000000000    0.8520820000000000    0.3450490000000000 Fe
   0.6547440000000000    0.6547440000000000    0.1480780000000000 Fe
   0.1480780000000000    0.6547440000000000    0.6547440000000000 Fe
   0.6547440000000000    0.1480780000000000    0.6547440000000000 Fe
   0.9074970000000000    0.9074970000000000    0.9074970000000000 Fe
   0.0926590000000000    0.0926590000000000    0.0926590000000000 Fe
   0.4996610000000000    0.4996610000000000    0.0007420000000000 C
   0.0007420000000000    0.4996610000000000    0.4996610000000000 C
   0.4996610000000000    0.0007420000000000    0.4996610000000000 C
