Gd1 Al1 Fe4
1.0
   4.3051006168036308    0.0000000000000000    2.4855510000000005
   1.4350335389345437    4.0588877864429813    2.4855510000000005
   0.0000000000000000    0.0000000000000000    4.9711020000000001
Gd Al Fe
1 1 4
direct
   0.2500000000000000    0.2500000000000000    0.2500000000000000 Gd
   0.0000000000000000    0.0000000000000000    0.0000000000000000 Al
   0.6259130000000001    0.6259120000000000    0.1222620000000000 Fe
   0.6259130000000001    0.1222620000000000    0.6259120000000000 Fe
   0.6259130000000001    0.6259120000000000    0.6259120000000000 Fe
   0.1222630000000000    0.6259120000000000    0.6259120000000000 Fe
