Gd2 Fe14 Si3 C3
1.0
   6.3875287067170508    0.0000000000000000    0.7290835996631564
   0.6505981220840364    6.3543099600565354    0.7290835275640104
   0.0000000000000000    0.0000000000000000    6.4290032999999998
Gd Fe Si C
2 14 3 3
direct
   0.6539239999999999    0.6539239999999999    0.6539239999999999 Gd
   0.3460760000000000    0.3460760000000000    0.3460760000000000 Gd
   0.7155540000000000    0.2844460000000000    0.0000000000000000 Fe
   0.0000000000000000    0.7155540000000000    0.2844460000000000 Fe
   0.2844460000000000    0.0000000000000000    0.7155540000000000 Fe
   0.0000000000000000    0.2844460000000000    0.7155540000000000 Fe
   0.7155540000000000    0.0000000000000000    0.2844460000000000 Fe
   0.2844460000000000    0.7155540000000000    0.0000000000000000 Fe
   0.3408540000000000    0.8610750000000000    0.3408540000000000 Fe
   0.3408540000000000    0.3408540000000000    0.8610750000000000 Fe
   0.8610750000000000    0.3408540000000000    0.3408540000000000 Fe
   0.6591460000000000    0.1389250000000000    0.6591460000000000 Fe
   0.6591460000000000    0.6591460000000000    0.1389250000000000 Fe
   0.1389250000000000    0.6591460000000000    0.6591460000000000 Fe
   0.9029890000000000    0.9029890000000000    0.9029890000000000 Fe
   0.0970110000000000    0.0970110000000000    0.0970110000000000 Fe
   0.0000000000000000    0.0000000000000000    0.5000000000000000 Si
   0.5000000000000000    0.0000000000000000    0.0000000000000000 Si
   0.0000000000000000    0.5000000000000000    0.0000000000000000 Si
   0.5000000000000000    0.5000000000000000    0.0000000000000000 C
   0.0000000000000000    0.5000000000000000    0.5000000000000000 C
   0.5000000000000000    0.0000000000000000    0.5000000000000000 C
