Gd1 Y1 Fe10
1.0
   3.9405770000000002    0.0000000000000000    0.0000000000000002
  -0.0000000000000003    5.0218480000000003    0.0000000000000003
   0.0000000000000000    0.0000000000000000    8.6720749999999995
Gd Y Fe
1 1 10
direct
   0.0000000000000000    0.5000000000000000    0.0000000000000000 Gd
   0.0000000000000000    0.0000000000000000    0.5000000000000000 Y
   0.0000000000000000    0.5000000000000000    0.3332100000000000 Fe
   0.0000000000000000    0.0000000000000000    0.8337380000000000 Fe
   0.0000000000000000    0.0000000000000000    0.1662620000000000 Fe
   0.0000000000000000    0.5000000000000000    0.6667900000000000 Fe
   0.5000000000000000    0.5000000000000000    0.5000000000000000 Fe
   0.5000000000000000    0.0000000000000000    0.0000000000000000 Fe
   0.5000000000000000    0.7500340000000000    0.2499780000000000 Fe
   0.5000000000000000    0.2499660000000000    0.7500220000000000 Fe
   0.5000000000000000    0.2499660000000000    0.2499780000000000 Fe
   0.5000000000000000    0.7500340000000000    0.7500220000000000 Fe
