SYSTEM = Co15Gd2Mn2 D_GdUp_MnAFM locked relax
PREC = Accurate
ENCUT = 520
EDIFF = 1E-06
NELM = 400
ALGO = Normal
ISMEAR = 1
SIGMA = 0.2
ISPIN = 2
MAGMOM = 2*7.00  3.00  -3.00  15*1.50
LORBIT = 11
LASPH = .TRUE.
LMAXMIX = 6
LDAU = .TRUE.
LDAUTYPE = 2
LDAUL = 3 -1 -1
LDAUU = 6.70 0.00 0.00
LDAUJ = 0.70 0.00 0.00
LDAUPRINT = 1
LREAL = .FALSE.
LWAVE = .TRUE.
LCHARG = .TRUE.
KPAR = 4
IBRION = 2
ISIF = 2
NSW = 60
EDIFFG = -0.02
ISTART = 0
ICHARG = 2
NUPDOWN = 36
AMIX = 0.2
BMIX = 0.0001
AMIX_MAG = 0.8
BMIX_MAG = 0.0001
