Gd4 Fe1 Co5
1.0
   5.4139538423909865    0.0000000000000000    0.0375788083847657
  -2.7419967880118268    4.6682280115670327   -0.0375785116662307
   0.0000000000000000    0.0000000000000000    7.0335210100000003
Gd Fe Co
4 1 5
direct
   0.1636120000000000    0.8363900000000000    0.0979820000000000 Gd
   0.6626420000000000    0.3373590000000000    0.4028210000000000 Gd
   0.3373590000000000    0.6626420000000000    0.5971780000000000 Gd
   0.8363900000000000    0.1636120000000000    0.9020180000000000 Gd
   0.5000010000000000    0.5000010000000000    0.0000000000000000 Fe
   0.1635090000000000    0.3328350000000000    0.2507410000000000 Co
   0.6671650000000000    0.8364900000000000    0.2507410000000000 Co
   0.0000000000000000    0.0000000000000000    0.4999990000000000 Co
   0.3328350000000000    0.1635090000000000    0.7492590000000000 Co
   0.8364900000000000    0.6671650000000000    0.7492590000000000 Co
