Gd1 Mn1 Nb1 Fe11 P7
1.0
   8.9037380499999994    0.0000000000000000    0.0000000000000005
  -4.4622945641909304    7.7082217052586284    0.0000000000000005
   0.0000000000000000    0.0000000000000000    3.5873499999999998
Gd Mn Nb Fe P
1 1 1 11 7
direct
   0.6658740000000000    0.3325020000000000    0.5000000000000000 Gd
   0.1130450000000000    0.5492390000000000    0.5000000000000000 Mn
   0.0000380000000000    0.9990790000000001    0.0000000000000000 Nb
   0.7062790000000000    0.6115600000000000    0.0000000000000000 Fe
   0.3885350000000000    0.0957610000000000    0.0000000000000000 Fe
   0.9047890000000000    0.2929920000000000    0.0000000000000000 Fe
   0.2138770000000000    0.3911060000000000    0.0000000000000000 Fe
   0.6105280000000000    0.8232490000000000    0.0000000000000000 Fe
   0.1781290000000000    0.7862730000000000    0.0000000000000000 Fe
   0.2726940000000000    0.2257870000000000    0.5000000000000000 Fe
   0.7731530000000000    0.0455590000000000    0.5000000000000000 Fe
   0.9529400000000000    0.7272920000000000    0.5000000000000000 Fe
   0.4532860000000000    0.5658890000000000    0.5000000000000000 Fe
   0.4343260000000000    0.8909420000000000    0.5000000000000000 Fe
   0.4478390000000000    0.3699690000000000    0.0000000000000000 P
   0.6300500000000000    0.0779640000000000    0.0000000000000000 P
   0.9193570000000000    0.5521320000000000    0.0000000000000000 P
   0.0406300000000000    0.2545380000000000    0.5000000000000000 P
   0.7388100000000000    0.7812180000000000    0.5000000000000000 P
   0.2185550000000000    0.9581370000000000    0.5000000000000000 P
   0.3372620000000000    0.6688130000000000    0.0000000000000000 P
