Gd1 Zr2 Fe8 Co1
1.0
   4.7518600790770247    0.0000000000000000    7.0183234114490274
   2.1608264333883658    4.2321398795687264    7.0183235892141145
   0.0000000000000000    0.0000000000000000    8.4775531900000001
Gd Zr Fe Co
1 2 8 1
direct
   0.0008270000000000    0.0008270000000000    0.0006470000000000 Gd
   0.1417360000000000    0.1417360000000000    0.1437490000000000 Zr
   0.8579380000000000    0.8579380000000000    0.8579510000000000 Zr
   0.9189970000000000    0.4154770000000000    0.4132440000000000 Fe
   0.5844250000000000    0.0817000000000000    0.5857410000000000 Fe
   0.5850830000000000    0.5850830000000000    0.0819680000000000 Fe
   0.4154770000000000    0.9189970000000000    0.4132440000000000 Fe
   0.0817000000000000    0.5844250000000000    0.5857410000000000 Fe
   0.3327300000000000    0.3327300000000000    0.3331490000000000 Fe
   0.6662240000000000    0.6662240000000000    0.6668030000000000 Fe
   0.4998060000000000    0.4998060000000000    0.5003710000000000 Fe
   0.4150570000000000    0.4150570000000000    0.9173940000000000 Co
