Gd1 Sc2 Fe7 Co2
1.0
   4.7635499011102125    0.0000000000000000    7.0062301058311434
   2.1561919085386396    4.2476162361370022    7.0062303295990063
   0.0000000000000000    0.0000000000000000    8.4722305599999999
Gd Sc Fe Co
1 2 7 2
direct
   0.9999340000000000    0.9999340000000000    0.9999340000000000 Gd
   0.1436290000000000    0.1436290000000000    0.1436290000000000 Sc
   0.8566480000000000    0.8566480000000000    0.8566480000000000 Sc
   0.6672200000000000    0.6672200000000000    0.6672200000000000 Fe
   0.0821950000000000    0.5854770000000000    0.5854770000000000 Fe
   0.5854770000000000    0.5854770000000000    0.0821950000000000 Fe
   0.5854770000000000    0.0821950000000000    0.5854770000000000 Fe
   0.4149470000000000    0.9171060000000000    0.4149470000000000 Fe
   0.9171060000000000    0.4149470000000000    0.4149470000000000 Fe
   0.4149470000000000    0.4149470000000000    0.9171060000000000 Fe
   0.4998150000000000    0.4998150000000000    0.4998150000000000 Co
   0.3326060000000000    0.3326060000000000    0.3326060000000000 Co
