Gd6 Fe7 Co11
1.0
   5.1062837703020119    0.0000000000000000   -0.0080717493335482
  -2.5753919001606151    4.4349428212507727   -0.0000000814531477
   0.0000000000000000    0.0000000000000000   15.8686560799999992
Gd Fe Co
6 7 11
direct
   0.3331800000000000    0.6665910000000000    0.9589410000000000 Gd
   0.6683990000000000    0.3341990000000000    0.0372070000000000 Gd
   0.6664060000000001    0.3332030000000000    0.4609870000000000 Gd
   0.3345800000000000    0.6672900000000000    0.5395400000000000 Gd
   0.3338210000000000    0.6669110000000000    0.7492060000000000 Gd
   0.6652300000000000    0.3326140000000000    0.2501320000000000 Gd
   0.6626320000000000    0.8313160000000001    0.1275470000000000 Fe
   0.3299920000000000    0.6649960000000000    0.2526300000000000 Fe
   0.6670660000000000    0.3335320000000000    0.7495940000000000 Fe
   0.0006270000000000    0.0003130000000000    0.2522670000000000 Fe
   0.0012170000000000    0.0006090000000000    0.7497480000000000 Fe
   0.0002910000000000    0.0001450000000000    0.5004490000000000 Fe
   0.0037970000000000    0.0018990000000000    0.9990059999999999 Fe
   0.1664330000000000    0.8330320000000000    0.3736780000000000 Co
   0.1664330000000000    0.3334020000000000    0.3736780000000000 Co
   0.6673850000000000    0.8336930000000000    0.3732240000000000 Co
   0.8341850000000000    0.1672790000000000    0.6277650000000000 Co
   0.8341850000000000    0.6669060000000000    0.6277650000000000 Co
   0.3327730000000000    0.1663860000000000    0.6276470000000000 Co
   0.8336900000000000    0.1665490000000000    0.8711970000000000 Co
   0.8336900000000000    0.6671410000000000    0.8711970000000000 Co
   0.3329640000000000    0.1664820000000000    0.8711820000000000 Co
   0.1655120000000000    0.8333140000000000    0.1277070000000000 Co
   0.1655120000000000    0.3322000000000000    0.1277070000000000 Co
