Gd6 Fe13 Co5
1.0
   5.1243700056758135    0.0000000000000000    0.0002105171136269
  -2.5626527390933882    4.4272199768177547   -0.0087320759307927
   0.0000000000000000    0.0000000000000000   16.3293612199999991
Gd Fe Co
6 13 5
direct
   0.6659460000000000    0.3319060000000000    0.2500870000000000 Gd
   0.3334070000000000    0.6668400000000000    0.7506770000000000 Gd
   0.3329530000000000    0.6659330000000000    0.9631390000000000 Gd
   0.6672920000000000    0.3345630000000000    0.4634540000000000 Gd
   0.6670060000000000    0.3340880000000000    0.0379870000000000 Gd
   0.3333333333333333    0.6666666666666666    0.5383590000000000 Gd
   0.6672540000000000    0.3345770000000000    0.7500610000000000 Fe
   0.3318040000000000    0.6635770000000000    0.2495550000000000 Fe
   0.9995060000000000    0.9989910000000000    0.7499950000000000 Fe
   0.1673060000000000    0.3345820000000000    0.3722410000000000 Fe
   0.1662580000000000    0.8335170000000000    0.3715210000000000 Fe
   0.6672760000000000    0.8335090000000001    0.3715250000000000 Fe
   0.3323520000000000    0.1663070000000000    0.8719479999999999 Fe
   0.8339029999999999    0.1663100000000000    0.8719400000000000 Fe
   0.8330290000000000    0.6661100000000000    0.8726380000000000 Fe
   0.3319320000000000    0.1654980000000000    0.6274490000000000 Fe
   0.8335939999999999    0.1655060000000000    0.6274530000000000 Fe
   0.1665080000000000    0.8366690000000000    0.1280170000000000 Fe
   0.6701350000000000    0.8366810000000000    0.1280070000000000 Fe
   0.0002590000000000    0.0004240000000000    0.4985650000000000 Co
   0.9997210000000000    0.9995320000000000    0.9993330000000000 Co
   0.9980360000000000    0.9961130000000000    0.2506560000000000 Co
   0.8333400000000000    0.6666666666666666    0.6280170000000000 Co
   0.1677280000000000    0.3354980000000000    0.1273740000000000 Co
