Gd2 Lu1 Fe8 Os1
1.0
   4.8674136027110633    0.0000000000000000    7.2523201219578208
   2.2080995969826955    4.3377429085586083    7.2523200552007001
   0.0000000000000000    0.0000000000000000    8.7342929599999994
Gd Lu Fe Os
2 1 8 1
direct
   0.0004730000000000    0.0004730000000000    0.0004730000000000 Gd
   0.8577090000000001    0.8577090000000001    0.8577090000000001 Gd
   0.1417780000000000    0.1417780000000000    0.1417780000000000 Lu
   0.3327470000000000    0.3327470000000000    0.3327470000000000 Fe
   0.6672830000000000    0.6672830000000000    0.6672830000000000 Fe
   0.0782210000000000    0.5820720000000000    0.5820720000000000 Fe
   0.5820720000000000    0.5820720000000000    0.0782210000000000 Fe
   0.5820720000000000    0.0782210000000000    0.5820720000000000 Fe
   0.4180650000000000    0.9218180000000000    0.4180650000000000 Fe
   0.9218180000000000    0.4180650000000000    0.4180650000000000 Fe
   0.4180650000000000    0.4180650000000000    0.9218180000000000 Fe
   0.4996960000000000    0.4996960000000000    0.4996960000000000 Os
