Gd2 Sc1 Fe9
1.0
   4.8033865546295340    0.0000000000000000    1.4923028573461334
   2.1698807626466254    4.2853394695796503    1.4923029810133450
   0.0000000000000000    0.0000000000000000    8.4766541899999996
Gd Sc Fe
2 1 9
direct
   0.0008230000000000    0.0008230000000000    0.9975300000000000 Gd
   0.8568990000000000    0.8568990000000000    0.4293050000000000 Gd
   0.1419450000000000    0.1419450000000000    0.5741650000000000 Sc
   0.0823140000000000    0.5835000000000000    0.7506840000000000 Fe
   0.5835000000000000    0.5835000000000000    0.7506840000000000 Fe
   0.5835000000000000    0.0823140000000000    0.7506840000000000 Fe
   0.9183180000000000    0.4163290000000000    0.2490260000000000 Fe
   0.4163290000000000    0.4163290000000000    0.2490260000000000 Fe
   0.4163290000000000    0.9183180000000000    0.2490260000000000 Fe
   0.3330460000000000    0.3330460000000000    0.0008620000000000 Fe
   0.6672050000000000    0.6672050000000000    0.9983830000000000 Fe
   0.4997920000000000    0.4997920000000000    0.5006250000000000 Fe
