Gd1 Zr2 Fe9
1.0
   4.7718810881946734    0.0000000000000000    7.0011862476164826
   2.1590391980976369    4.2555134723181718    7.0011863601329178
   0.0000000000000000    0.0000000000000000    8.4727489699999996
Gd Zr Fe
1 2 9
direct
   0.0000000000000000    0.0000000000000000    0.0000000000000000 Gd
   0.1424450000000000    0.1424450000000000    0.1424450000000000 Zr
   0.8575550000000000    0.8575550000000000    0.8575550000000000 Zr
   0.5000000000000000    0.5000000000000000    0.5000000000000000 Fe
   0.3328530000000000    0.3328530000000000    0.3328530000000000 Fe
   0.6671470000000000    0.6671470000000000    0.6671470000000000 Fe
   0.0824490000000000    0.5851110000000000    0.5851110000000000 Fe
   0.5851110000000000    0.5851110000000000    0.0824490000000000 Fe
   0.5851110000000000    0.0824490000000000    0.5851110000000000 Fe
   0.4148890000000000    0.9175510000000000    0.4148890000000000 Fe
   0.9175510000000000    0.4148890000000000    0.4148890000000000 Fe
   0.4148890000000000    0.4148890000000000    0.9175510000000000 Fe
