Gd1 Mg1 Fe12 P7
1.0
   8.8993479999999998    0.0000000000000000    0.0000000000000005
  -4.4496739973544326    7.7070609963124408    0.0000000000000005
   0.0000000000000000    0.0000000000000000    3.6199490000000001
Gd Mg Fe P
1 1 12 7
direct
   0.3333333333333333    0.6666666666666666    0.0000000000000000 Gd
   0.0000000000000000    0.0000000000000000    0.5000000000000000 Mg
   0.7270540000000000    0.7600200000000000    0.0000000000000000 Fe
   0.2399800000000000    0.9670339999999999    0.0000000000000000 Fe
   0.0329660000000000    0.2729460000000000    0.0000000000000000 Fe
   0.9408760000000000    0.4899860000000000    0.0000000000000000 Fe
   0.5100140000000000    0.4508880000000000    0.0000000000000000 Fe
   0.5491120000000000    0.0591240000000000    0.0000000000000000 Fe
   0.0994030000000000    0.7223030000000000    0.5000000000000000 Fe
   0.2776970000000000    0.3771000000000000    0.5000000000000000 Fe
   0.6229000000000000    0.9005970000000000    0.5000000000000000 Fe
   0.7587990000000000    0.5394380000000000    0.5000000000000000 Fe
   0.4605620000000000    0.2193620000000000    0.5000000000000000 Fe
   0.7806380000000001    0.2412010000000000    0.5000000000000000 Fe
   0.9661660000000000    0.7488760000000000    0.0000000000000000 P
   0.2511240000000000    0.2172890000000000    0.0000000000000000 P
   0.7827110000000000    0.0338340000000000    0.0000000000000000 P
   0.0645550000000000    0.4445230000000000    0.5000000000000000 P
   0.5554770000000000    0.6200300000000000    0.5000000000000000 P
   0.3799700000000000    0.9354450000000000    0.5000000000000000 P
   0.6666666666666666    0.3333333333333333    0.0000000000000000 P
