Gd2 Lu2 Mn2 Fe18 P12
1.0
   3.6497480000000002    0.0000000000000000    0.0000000000000002
  -0.0000000000000006   10.2432689999999997    0.0000000000000006
   0.0000000000000000    0.0000000000000000   11.8247520000000002
Gd Lu Mn Fe P
2 2 2 18 12
direct
   0.7500000000000000    0.4237670000000000    0.2954070000000000 Gd
   0.7500000000000000    0.0762330000000000    0.7954070000000000 Gd
   0.2500000000000000    0.5824880000000000    0.7043830000000000 Lu
   0.2500000000000000    0.9175120000000000    0.2043830000000000 Lu
   0.2500000000000000    0.7010670000000000    0.9902130000000000 Mn
   0.2500000000000000    0.7989330000000000    0.4902130000000000 Mn
   0.7500000000000000    0.2896560000000000    0.0107380000000000 Fe
   0.7500000000000000    0.2103440000000000    0.5107380000000000 Fe
   0.2500000000000000    0.4087990000000000    0.4896720000000000 Fe
   0.2500000000000000    0.0912010000000000    0.9896720000000000 Fe
   0.7500000000000000    0.5994350000000001    0.5130590000000000 Fe
   0.7500000000000000    0.9005649999999999    0.0130590000000000 Fe
   0.2500000000000000    0.2181660000000000    0.1758260000000000 Fe
   0.2500000000000000    0.2818340000000000    0.6758260000000000 Fe
   0.7500000000000000    0.7774400000000000    0.8288820000000000 Fe
   0.7500000000000000    0.7225600000000000    0.3288820000000000 Fe
   0.2500000000000000    0.8783630000000000    0.6999850000000000 Fe
   0.2500000000000000    0.6216370000000000    0.1999850000000000 Fe
   0.7500000000000000    0.1279330000000000    0.2968920000000000 Fe
   0.7500000000000000    0.3720670000000000    0.7968920000000000 Fe
   0.2500000000000000    0.4601450000000000    0.9308630000000000 Fe
   0.2500000000000000    0.0398550000000000    0.4308630000000000 Fe
   0.7500000000000000    0.5337900000000000    0.0642080000000000 Fe
   0.7500000000000000    0.9662100000000000    0.5642080000000000 Fe
   0.2500000000000000    0.4232410000000000    0.1125510000000000 P
   0.2500000000000000    0.0767590000000000    0.6125510000000000 P
   0.7500000000000000    0.5745740000000000    0.8832350000000000 P
   0.7500000000000000    0.9254260000000000    0.3832350000000000 P
   0.2500000000000000    0.2608920000000000    0.8718760000000000 P
   0.2500000000000000    0.2391080000000000    0.3718760000000000 P
   0.7500000000000000    0.7302970000000000    0.1379190000000000 P
   0.7500000000000000    0.7697030000000000    0.6379190000000000 P
   0.2500000000000000    0.6016610000000000    0.3914640000000000 P
   0.2500000000000000    0.8983390000000000    0.8914640000000000 P
   0.7500000000000000    0.4032230000000000    0.6028230000000000 P
   0.7500000000000000    0.0967770000000000    0.1028230000000000 P
