Gd1 Sc1 Ti1 Fe9
1.0
   4.7339701340264941    0.0000000000000000    6.9250166221613112
   2.1407819627792715    4.2222668406490245    6.9250162674366340
   0.0000000000000000    0.0000000000000000    8.3884642199999995
Gd Sc Ti Fe
1 1 1 9
direct
   0.0005050000000000    0.0005050000000000    0.0005050000000000 Gd
   0.8559980000000000    0.8559980000000000    0.8559980000000000 Sc
   0.1441580000000000    0.1441580000000000    0.1441580000000000 Ti
   0.4998410000000000    0.4998410000000000    0.4998410000000000 Fe
   0.3328250000000000    0.3328250000000000    0.3328250000000000 Fe
   0.6672910000000000    0.6672910000000000    0.6672910000000000 Fe
   0.0830660000000000    0.5867040000000000    0.5867040000000000 Fe
   0.5867040000000000    0.5867040000000000    0.0830660000000000 Fe
   0.5867040000000000    0.0830660000000000    0.5867040000000000 Fe
   0.4129390000000000    0.9170310000000000    0.4129390000000000 Fe
   0.9170310000000000    0.4129390000000000    0.4129390000000000 Fe
   0.4129390000000000    0.4129390000000000    0.9170310000000000 Fe
