Gd2 Al2 Ga1 Fe14 C3
1.0
   6.4615386604415299    0.0000000000000000    0.7555043130850040
   0.6725566046088026    6.4264416478761373    0.7555041095998578
   0.0000000000000000    0.0000000000000000    6.5089740999999997
Gd Al Ga Fe C
2 2 1 14 3
direct
   0.6567320000000000    0.6567320000000000    0.6568920000000000 Gd
   0.3432680000000000    0.3432680000000000    0.3431080000000000 Gd
   0.5000000000000000    0.0000000000000000    0.0000000000000000 Al
   0.0000000000000000    0.5000000000000000    0.0000000000000000 Al
   0.0000000000000000    0.0000000000000000    0.5000000000000000 Ga
   0.7143990000000000    0.2856010000000000    0.0000000000000000 Fe
   0.9995800000000000    0.7140170000000000    0.2853850000000000 Fe
   0.2859830000000000    0.0004200000000000    0.7146150000000000 Fe
   0.0004200000000000    0.2859830000000000    0.7146150000000000 Fe
   0.7140170000000000    0.9995800000000000    0.2853850000000000 Fe
   0.2856010000000000    0.7143990000000000    0.0000000000000000 Fe
   0.3462290000000000    0.8510490000000001    0.3453060000000000 Fe
   0.3456320000000000    0.3456320000000000    0.8512100000000000 Fe
   0.8510490000000001    0.3462290000000000    0.3453060000000000 Fe
   0.6537710000000000    0.1489510000000000    0.6546940000000000 Fe
   0.6543679999999999    0.6543679999999999    0.1487900000000000 Fe
   0.1489510000000000    0.6537710000000000    0.6546940000000000 Fe
   0.9072780000000000    0.9072780000000000    0.9078020000000000 Fe
   0.0927220000000000    0.0927220000000000    0.0921980000000000 Fe
   0.5000000000000000    0.5000000000000000    0.0000000000000000 C
   0.0000000000000000    0.5000000000000000    0.5000000000000000 C
   0.5000000000000000    0.0000000000000000    0.5000000000000000 C
