Gd2 V1 Fe11 P7
1.0
   9.0358195000000006    0.0000000000000000    0.0000000000000006
  -4.5954736368901195    7.8187674820481474    0.0000000000000006
   0.0000000000000000    0.0000000000000000    3.6410030000000000
Gd V Fe P
2 1 11 7
direct
   0.6706310000000000    0.3315320000000000    0.0000000000000000 Gd
   0.3324030000000000    0.6685870000000000    0.5000000000000000 Gd
   0.1110950000000000    0.2150950000000000    0.5000000000000000 V
   0.0552570000000000    0.6309830000000000    0.0000000000000000 Fe
   0.5730310000000000    0.9453660000000000    0.0000000000000000 Fe
   0.3806210000000000    0.4309740000000000    0.0000000000000000 Fe
   0.2743310000000000    0.1188040000000000    0.0000000000000000 Fe
   0.8419650000000000    0.7227789999999999    0.0000000000000000 Fe
   0.8802130000000000    0.1504510000000000    0.0000000000000000 Fe
   0.4328470000000000    0.0473240000000000    0.5000000000000000 Fe
   0.6126509999999999    0.5670960000000000    0.5000000000000000 Fe
   0.9514640000000000    0.3841880000000000    0.5000000000000000 Fe
   0.0943670000000000    0.8807739999999999    0.5000000000000000 Fe
   0.7816650000000001    0.9026459999999999    0.5000000000000000 Fe
   0.2968070000000000    0.8882780000000000    0.0000000000000000 P
   0.5946730000000000    0.7131980000000000    0.0000000000000000 P
   0.1085790000000000    0.4126800000000000    0.0000000000000000 P
   0.4069410000000000    0.2834820000000000    0.5000000000000000 P
   0.8915520000000000    0.6004280000000000    0.5000000000000000 P
   0.7117940000000000    0.1111520000000000    0.5000000000000000 P
   0.9971110000000000    0.9941820000000000    0.0000000000000000 P
