Gd2 Al2 Fe6 B2
1.0
   5.1983249999999996    0.0000000000000000    0.0000000000000003
  -2.5991640023839162    4.5015760039940025    0.0000000000000003
   0.0000000000000000    0.0000000000000000    6.8604089999999998
Gd Al Fe B
2 2 6 2
direct
   0.9999780000000000    0.0000000000000000    0.0000000000000000 Gd
   0.9999890000000000    0.0000000000000000    0.5000000000000000 Gd
   0.3333333333333333    0.6666666666666666    0.0000000000000000 Al
   0.6666666666666666    0.3333333333333333    0.0000000000000000 Al
   0.4999860000000000    0.0000000000000000    0.2953690000000000 Fe
   0.4999850000000000    0.5000000000000000    0.2953920000000000 Fe
   0.9999850000000000    0.5000000000000000    0.2953920000000000 Fe
   0.4999860000000000    0.0000000000000000    0.7046310000000000 Fe
   0.4999850000000000    0.5000000000000000    0.7046080000000000 Fe
   0.9999850000000000    0.5000000000000000    0.7046080000000000 Fe
   0.3333333333333333    0.6666666666666666    0.5000000000000000 B
   0.6666666666666666    0.3333333333333333    0.5000000000000000 B
