Gd2 Al3 Fe14 C2
1.0
   6.4150208391542396    0.0000000000000000    0.7068352539074532
   0.5968289850836510    6.3871960579293878    0.7068346901814609
   0.0000000000000000    0.0000000000000000    6.4670022800000000
Gd Al Fe C
2 3 14 2
direct
   0.3422630000000000    0.3422630000000000    0.3400000000000000 Gd
   0.6579460000000000    0.6579460000000000    0.6587320000000000 Gd
   0.6552350000000000    0.6552350000000000    0.1490630000000000 Al
   0.3446950000000000    0.3446950000000000    0.8518000000000000 Al
   0.9996340000000000    0.9996340000000000    0.5000360000000000 Al
   0.6559850000000000    0.1456990000000000    0.6630460000000000 Fe
   0.1456990000000000    0.6559850000000000    0.6630460000000000 Fe
   0.3440630000000000    0.8547270000000000    0.3372030000000000 Fe
   0.8547270000000000    0.3440630000000000    0.3372030000000000 Fe
   0.0962750000000000    0.0962750000000000    0.0928620000000000 Fe
   0.9036290000000000    0.9036290000000000    0.9073540000000000 Fe
   0.9997480000000000    0.4999280000000000    0.9997700000000000 Fe
   0.4999280000000000    0.9997480000000000    0.9997700000000000 Fe
   0.7163140000000000    0.2837390000000000    0.9999920000000000 Fe
   0.2882040000000000    0.9955889999999999    0.7171460000000000 Fe
   0.0045420000000000    0.7116050000000000    0.2828940000000000 Fe
   0.7116050000000000    0.0045420000000000    0.2828940000000000 Fe
   0.9955889999999999    0.2882040000000000    0.7171460000000000 Fe
   0.2837390000000000    0.7163140000000000    0.9999920000000000 Fe
   0.4997700000000000    0.0004110000000000    0.5000260000000000 C
   0.0004110000000000    0.4997700000000000    0.5000260000000000 C
