Gd3 Fe8 Os1
1.0
   4.8664072735264785    0.0000000000000000    1.4844279554236599
   2.2068017431097000    4.3372738952153282    1.4844279415355568
   0.0000000000000000    0.0000000000000000    8.7189966800000001
Gd Fe Os
3 8 1
direct
   0.0000000000000000    0.0000000000000000    0.0000000000000000 Gd
   0.1418090000000000    0.1418090000000000    0.5745710000000001 Gd
   0.8581910000000000    0.8581910000000000    0.4254290000000000 Gd
   0.0772740000000000    0.5827639999999999    0.7571980000000000 Fe
   0.5827639999999999    0.5827639999999999    0.7571980000000000 Fe
   0.5827639999999999    0.0772740000000000    0.7571980000000000 Fe
   0.9227260000000000    0.4172360000000000    0.2428020000000000 Fe
   0.4172360000000000    0.4172360000000000    0.2428020000000000 Fe
   0.4172360000000000    0.9227260000000000    0.2428020000000000 Fe
   0.3330740000000000    0.3330740000000000    0.0007770000000000 Fe
   0.6669260000000000    0.6669260000000000    0.9992230000000000 Fe
   0.5000000000000000    0.5000000000000000    0.5000000000000000 Os
