Gd1 Zr2 Al3 Fe6
1.0
   4.8683955854505658    0.0000000000000000    7.0613453351136553
   2.1982862141700830    4.3438234649208072    7.0613454947256420
   0.0000000000000000    0.0000000000000000    8.5769392399999997
Gd Zr Al Fe
1 2 3 6
direct
   0.0000000000000000    0.0000000000000000    0.0000000000000000 Gd
   0.1405270000000000    0.1405270000000000    0.1405270000000000 Zr
   0.8594730000000000    0.8594730000000000    0.8594730000000000 Zr
   0.5000000000000000    0.5000000000000000    0.5000000000000000 Al
   0.3346060000000000    0.3346060000000000    0.3346060000000000 Al
   0.6653940000000000    0.6653940000000000    0.6653940000000000 Al
   0.0746350000000000    0.5893320000000000    0.5893320000000000 Fe
   0.5893320000000000    0.5893320000000000    0.0746350000000000 Fe
   0.5893320000000000    0.0746350000000000    0.5893320000000000 Fe
   0.4106680000000000    0.9253650000000000    0.4106680000000000 Fe
   0.9253650000000000    0.4106680000000000    0.4106680000000000 Fe
   0.4106680000000000    0.4106680000000000    0.9253650000000000 Fe
