Gd6 Fe18
1.0
   5.0797420000000004    0.0000000000000000    0.0000000000000003
  -2.5398709991545987    4.3991859982100383    0.0000000000000003
   0.0000000000000000    0.0000000000000000   16.0754349999999988
Gd Fe
6 18
direct
   0.3333333333333333    0.6666666666666666    0.5367280000000000 Gd
   0.3333333333333333    0.6666666666666666    0.7509240000000000 Gd
   0.6666666666666666    0.3333333333333333    0.2496700000000000 Gd
   0.3333333333333333    0.6666666666666666    0.9632490000000000 Gd
   0.6666666666666666    0.3333333333333333    0.0366890000000000 Gd
   0.6666666666666666    0.3333333333333333    0.4626610000000000 Gd
   0.1669320000000000    0.8330680000000000    0.3728580000000000 Fe
   0.1669320000000000    0.3338640000000000    0.3728580000000000 Fe
   0.6661360000000000    0.8330680000000000    0.3728580000000000 Fe
   0.8326940000000000    0.1673060000000000    0.6273260000000001 Fe
   0.8326940000000000    0.6653860000000000    0.6273260000000001 Fe
   0.3346140000000000    0.1673060000000000    0.6273260000000001 Fe
   0.8325910000000000    0.1674090000000000    0.8736330000000000 Fe
   0.8325910000000000    0.6651810000000000    0.8736330000000000 Fe
   0.3348190000000000    0.1674090000000000    0.8736330000000000 Fe
   0.1673230000000000    0.8326770000000000    0.1263210000000000 Fe
   0.1673230000000000    0.3346450000000000    0.1263210000000000 Fe
   0.6653550000000000    0.8326770000000000    0.1263210000000000 Fe
   0.3333333333333333    0.6666666666666666    0.2497600000000000 Fe
   0.6666666666666666    0.3333333333333333    0.7503379999999999 Fe
   0.0000000000000000    0.0000000000000000    0.2495150000000000 Fe
   0.0000000000000000    0.0000000000000000    0.7504420000000001 Fe
   0.0000000000000000    0.0000000000000000    0.4997410000000000 Fe
   0.0000000000000000    0.0000000000000000    0.9998690000000000 Fe
