Gd3 Co11 B4
1.0
   5.0443115100000000    0.0000000000000000    0.0000000000000003
  -2.5221518201472626    4.3953007026712445    0.0000000000000003
   0.0000000000000000    0.0000000000000000    9.6863552700000000
Gd Co B
3 11 4
direct
   0.0000000000000000    0.0000000000000000    0.6555229700000000 Gd
   0.0000000000000000    0.0000000000000000    0.3444770300000000 Gd
   0.0000000000000000    0.0000000000000000    0.0000000000000000 Gd
   0.0000000000000000    0.5000000000000000    0.7998779300000000 Co
   0.5000000000000000    0.5000000000000000    0.7998749300000000 Co
   0.5000000000000000    0.0000000000000000    0.2009490800000000 Co
   0.6662250400000000    0.3324500700000000    0.0000000000000000 Co
   0.0000000000000000    0.5000000000000000    0.2001220700000000 Co
   0.5000000000000000    0.0000000000000000    0.7990509200000000 Co
   0.5000000000000000    0.5000000000000000    0.2001250700000000 Co
   0.5000000000000000    0.5000000000000000    0.5000000000000000 Co
   0.3337749600000000    0.6675499300000000    0.0000000000000000 Co
   0.5000000000000000    0.0000000000000000    0.5000000000000000 Co
   0.0000000000000000    0.5000000000000000    0.5000000000000000 Co
   0.6665691000000000    0.3331412000000000    0.6476534900000001 B
   0.3334309000000000    0.6668588000000000    0.3523465100000000 B
   0.3334309000000000    0.6668588000000000    0.6476534900000001 B
   0.6665691000000000    0.3331412000000000    0.3523465100000000 B
