Tb2 Mn1 Co16
1.0
   6.2474711314950016    0.0000000000000000    0.7559353645255302
   0.6699828526753556    6.2114413168006326    0.7559359002452131
   0.0000000000000000    0.0000000000000000    6.2930378400000002
Tb Mn Co
2 1 16
direct
   0.6557809999999999    0.6557809999999999    0.6557809999999999 Tb
   0.3466610000000000    0.3466610000000000    0.3466610000000000 Tb
   0.0974100000000000    0.0974100000000000    0.0974100000000000 Mn
   0.7112190000000000    0.2886090000000000    0.9988359999999999 Co
   0.9988359999999999    0.7112190000000000    0.2886090000000000 Co
   0.2886090000000000    0.9988359999999999    0.7112190000000000 Co
   0.9988359999999999    0.2886090000000000    0.7112190000000000 Co
   0.7112190000000000    0.9988359999999999    0.2886090000000000 Co
   0.2886090000000000    0.7112190000000000    0.9988359999999999 Co
   0.3480290000000000    0.3480290000000000    0.8487120000000000 Co
   0.8487120000000000    0.3480290000000000    0.3480290000000000 Co
   0.3480290000000000    0.8487120000000000    0.3480290000000000 Co
   0.6544250000000000    0.6544250000000000    0.1512770000000000 Co
   0.1512770000000000    0.6544250000000000    0.6544250000000000 Co
   0.6544250000000000    0.1512770000000000    0.6544250000000000 Co
   0.9974090000000000    0.9974090000000000    0.5045600000000000 Co
   0.5045600000000000    0.9974090000000000    0.9974090000000000 Co
   0.9974090000000000    0.5045600000000000    0.9974090000000000 Co
   0.8985460000000000    0.8985460000000000    0.8985460000000000 Co
