Gd2 Sc1 Fe7 Co2
1.0
   4.7885019531235127    0.0000000000000000    7.0555635786779121
   2.1622981941067612    4.2724947887613149    7.0555634909917799
   0.0000000000000000    0.0000000000000000    8.5360172599999995
Gd Sc Fe Co
2 1 7 2
direct
   0.0014750000000000    0.0014750000000000    0.0010410000000000 Gd
   0.8571790000000000    0.8571790000000000    0.8569660000000000 Gd
   0.1422930000000000    0.1422930000000000    0.1413410000000000 Sc
   0.9178420000000000    0.4165240000000000    0.4165690000000000 Fe
   0.5831870000000000    0.0821790000000000    0.5836610000000000 Fe
   0.5837970000000000    0.5837970000000000    0.0818210000000000 Fe
   0.4165240000000000    0.9178420000000000    0.4165690000000000 Fe
   0.0821790000000000    0.5831870000000000    0.5836610000000000 Fe
   0.3333333333333333    0.3333333333333333    0.3321790000000000 Fe
   0.6666666666666666    0.6666666666666666    0.6680420000000000 Fe
   0.4161150000000000    0.4161150000000000    0.9190320000000000 Co
   0.4994040000000000    0.4994040000000000    0.4991180000000000 Co
