Gd2 Y1 Fe7 B2
1.0
   4.8407780452409011    0.0000000000000000    6.1111363861673231
   2.1271418228625456    4.3483791378984682    6.1111363116779431
   0.0000000000000000    0.0000000000000000    7.7960963599999999
Gd Y Fe B
2 1 7 2
direct
   0.5001300000000000    0.5001300000000000    0.5001300000000000 Gd
   0.6435640000000000    0.6435640000000000    0.6435640000000000 Gd
   0.3563090000000000    0.3563090000000000    0.3563090000000000 Y
   0.9999180000000000    0.9999180000000000    0.9999180000000000 Fe
   0.5735370000000000    0.0667110000000000    0.0667130000000000 Fe
   0.0667110000000000    0.5735370000000000    0.0667130000000000 Fe
   0.9331480000000000    0.9331480000000000    0.4268650000000000 Fe
   0.0667120000000000    0.0667120000000000    0.5735380000000000 Fe
   0.9331480000000000    0.4268660000000000    0.9331469999999999 Fe
   0.4268660000000000    0.9331480000000000    0.9331469999999999 Fe
   0.1679110000000000    0.1679110000000000    0.1679110000000000 B
   0.8320440000000000    0.8320440000000000    0.8320440000000000 B
