Gd1 Zr2 Co9
1.0
   4.6750683324077507    0.0000000000000000    7.0210627205572393
   2.1236754722351563    4.1648858735614995    7.0210628640527428
   0.0000000000000000    0.0000000000000000    8.4351402899999997
Gd Zr Co
1 2 9
direct
   0.0000000000000000    0.0000000000000000    0.0000000000000000 Gd
   0.1395730000000000    0.1395730000000000    0.1395730000000000 Zr
   0.8604270000000001    0.8604270000000001    0.8604270000000001 Zr
   0.5867050000000000    0.0785890000000000    0.5867050000000000 Co
   0.5867050000000000    0.5867050000000000    0.0785890000000000 Co
   0.3355110000000000    0.3355110000000000    0.3355110000000000 Co
   0.9214110000000000    0.4132950000000000    0.4132950000000000 Co
   0.0785890000000000    0.5867050000000000    0.5867050000000000 Co
   0.4132950000000000    0.9214110000000000    0.4132950000000000 Co
   0.6644890000000000    0.6644890000000000    0.6644890000000000 Co
   0.5000000000000000    0.5000000000000000    0.5000000000000000 Co
   0.4132950000000000    0.4132950000000000    0.9214110000000000 Co
