Gd4 Ti1 Fe19 P12
1.0
   3.6637770000000001    0.0000000000000000    0.0000000000000002
  -0.0000000000000006   10.3589229593283232    0.0301687059187289
   0.0000000000000000    0.0000000000000000   11.8785877000000006
Gd Ti Fe P
4 1 19 12
direct
   0.2500000000000000    0.5787540000000000    0.7024899999999999 Gd
   0.2500000000000000    0.9208090000000000    0.2058580000000000 Gd
   0.7500000000000000    0.4191800000000000    0.2961060000000000 Gd
   0.7500000000000000    0.0842990000000000    0.7925850000000000 Gd
   0.2500000000000000    0.7003470000000001    0.9910679999999999 Ti
   0.2500000000000000    0.7902590000000000    0.4905420000000000 Fe
   0.7500000000000000    0.2937500000000000    0.0102390000000000 Fe
   0.7500000000000000    0.2077710000000000    0.5103790000000000 Fe
   0.2500000000000000    0.4034190000000000    0.4906910000000000 Fe
   0.2500000000000000    0.0978080000000000    0.9917600000000000 Fe
   0.7500000000000000    0.5920630000000000    0.5098470000000001 Fe
   0.7500000000000000    0.9088680000000000    0.0075450000000000 Fe
   0.2500000000000000    0.2217760000000000    0.1762090000000000 Fe
   0.2500000000000000    0.2795360000000000    0.6760790000000000 Fe
   0.7500000000000000    0.7844490000000000    0.8187179999999999 Fe
   0.7500000000000000    0.7195859999999999    0.3280750000000000 Fe
   0.2500000000000000    0.8756950000000000    0.7016410000000000 Fe
   0.2500000000000000    0.6247070000000000    0.2049490000000000 Fe
   0.7500000000000000    0.1242070000000000    0.2993760000000000 Fe
   0.7500000000000000    0.3737420000000000    0.7981819999999999 Fe
   0.2500000000000000    0.4599140000000000    0.9318689999999999 Fe
   0.2500000000000000    0.0364110000000000    0.4322690000000000 Fe
   0.7500000000000000    0.5330030000000000    0.0669290000000000 Fe
   0.7500000000000000    0.9631900000000000    0.5674610000000000 Fe
   0.2500000000000000    0.4238310000000000    0.1132840000000000 P
   0.2500000000000000    0.0775390000000000    0.6111500000000000 P
   0.7500000000000000    0.5723190000000000    0.8839590000000001 P
   0.7500000000000000    0.9231420000000000    0.3880000000000000 P
   0.2500000000000000    0.2648900000000000    0.8718200000000000 P
   0.2500000000000000    0.2328700000000000    0.3704160000000000 P
   0.7500000000000000    0.7323690000000000    0.1370120000000000 P
   0.7500000000000000    0.7644050000000000    0.6231760000000000 P
   0.2500000000000000    0.6001050000000000    0.3970890000000000 P
   0.2500000000000000    0.9122670000000001    0.8944540000000000 P
   0.7500000000000000    0.3970440000000000    0.6034560000000000 P
   0.7500000000000000    0.1056770000000000    0.1053190000000000 P
