Gd1 Hf1 Sc1 Fe9
1.0
   4.7676053798752056    0.0000000000000000    6.9634005654919333
   2.1554081753694279    4.2525597471928256    6.9634005241928225
   0.0000000000000000    0.0000000000000000    8.4391359999999995
Gd Hf Sc Fe
1 1 1 9
direct
   0.0002350000000000    0.0002350000000000    0.0002350000000000 Gd
   0.8562570000000000    0.8562570000000000    0.8562570000000000 Hf
   0.1427090000000000    0.1427090000000000    0.1427090000000000 Sc
   0.5000700000000000    0.5000700000000000    0.5000700000000000 Fe
   0.3327320000000000    0.3327320000000000    0.3327320000000000 Fe
   0.6672730000000000    0.6672730000000000    0.6672730000000000 Fe
   0.0826580000000000    0.5860030000000001    0.5860030000000001 Fe
   0.5860030000000001    0.5860030000000001    0.0826580000000000 Fe
   0.5860030000000001    0.0826580000000000    0.5860030000000001 Fe
   0.4142080000000000    0.9176430000000000    0.4142080000000000 Fe
   0.9176430000000000    0.4142080000000000    0.4142080000000000 Fe
   0.4142080000000000    0.4142080000000000    0.9176430000000000 Fe
