Gd3 Y1 Fe11 Co3
1.0
   4.9692323561977991    0.0000000000000000    1.0326951184274462
   2.3535807427760220    4.3721014178628437    1.0269428755531169
   0.0000000000000000    0.0000000000000000   12.5039101400000003
Gd Y Fe Co
3 1 11 3
direct
   0.9480070000000000    0.9478520000000000    0.1559980000000000 Gd
   0.1501760000000000    0.1488650000000000    0.5510900000000000 Gd
   0.8505870000000000    0.8512700000000000    0.4475470000000000 Gd
   0.0522890000000000    0.0522360000000000    0.8431980000000000 Y
   0.2796790000000000    0.2790130000000000    0.1644380000000000 Fe
   0.7204380000000000    0.7198800000000000    0.8355800000000000 Fe
   0.3888080000000000    0.3891360000000000    0.8367660000000000 Fe
   0.6112050000000000    0.6112490000000000    0.1634500000000000 Fe
   0.4997960000000000    0.0002770000000000    0.0001260000000000 Fe
   0.9997090000000000    0.5000140000000000    0.0001350000000000 Fe
   0.1095230000000000    0.6094349999999999    0.6716950000000000 Fe
   0.6095270000000000    0.6094800000000000    0.6716010000000000 Fe
   0.6096500000000000    0.1088850000000000    0.6718229999999999 Fe
   0.8900320000000000    0.3907190000000000    0.3287440000000000 Fe
   0.3905670000000000    0.3906390000000000    0.3287390000000000 Fe
   0.4995960000000000    0.4998610000000000    0.5010370000000000 Co
   0.4999590000000000    0.5001820000000000    0.0000880000000000 Co
   0.3904530000000000    0.8910060000000000    0.3279450000000000 Co
