Gd4 Ti2 Fe18 P12
1.0
   3.6719130000000000    0.0000000000000000    0.0000000000000002
  -0.0000000000000006   10.3922059999999998    0.0000000000000006
   0.0000000000000000    0.0000000000000000   11.9592890000000001
Gd Ti Fe P
4 2 18 12
direct
   0.2500000000000000    0.5764740000000000    0.7042670000000000 Gd
   0.2500000000000000    0.9235260000000000    0.2042670000000000 Gd
   0.7500000000000000    0.4155970000000000    0.2924710000000000 Gd
   0.7500000000000000    0.0844030000000000    0.7924710000000000 Gd
   0.2500000000000000    0.7004150000000000    0.9892970000000000 Ti
   0.2500000000000000    0.7995850000000000    0.4892970000000000 Ti
   0.7500000000000000    0.2946220000000000    0.0099920000000000 Fe
   0.7500000000000000    0.2053780000000000    0.5099920000000000 Fe
   0.2500000000000000    0.4005840000000000    0.4925510000000000 Fe
   0.2500000000000000    0.0994160000000000    0.9925510000000000 Fe
   0.7500000000000000    0.5885089999999999    0.5080480000000001 Fe
   0.7500000000000000    0.9114910000000001    0.0080480000000000 Fe
   0.2500000000000000    0.2242890000000000    0.1754560000000000 Fe
   0.2500000000000000    0.2757110000000000    0.6754559999999999 Fe
   0.7500000000000000    0.7845760000000001    0.8238780000000000 Fe
   0.7500000000000000    0.7154239999999999    0.3238780000000000 Fe
   0.2500000000000000    0.8747410000000000    0.7048489999999999 Fe
   0.2500000000000000    0.6252590000000000    0.2048490000000000 Fe
   0.7500000000000000    0.1254550000000000    0.3000360000000000 Fe
   0.7500000000000000    0.3745450000000000    0.8000360000000000 Fe
   0.2500000000000000    0.4596890000000000    0.9324980000000000 Fe
   0.2500000000000000    0.0403110000000000    0.4324980000000000 Fe
   0.7500000000000000    0.5338640000000000    0.0666980000000000 Fe
   0.7500000000000000    0.9661360000000000    0.5666980000000000 Fe
   0.2500000000000000    0.4237470000000000    0.1119550000000000 P
   0.2500000000000000    0.0762530000000000    0.6119550000000000 P
   0.7500000000000000    0.5709730000000000    0.8843700000000000 P
   0.7500000000000000    0.9290270000000000    0.3843700000000000 P
   0.2500000000000000    0.2656040000000000    0.8689390000000000 P
   0.2500000000000000    0.2343960000000000    0.3689390000000000 P
   0.7500000000000000    0.7345900000000000    0.1324790000000000 P
   0.7500000000000000    0.7654100000000000    0.6324790000000000 P
   0.2500000000000000    0.5857830000000001    0.3951740000000000 P
   0.2500000000000000    0.9142169999999999    0.8951740000000000 P
   0.7500000000000000    0.3908130000000000    0.6070400000000000 P
   0.7500000000000000    0.1091870000000000    0.1070400000000000 P
