Gd1 Zr1 Sc1 Fe9
1.0
   4.7820568206365559    0.0000000000000000    7.0014689222349364
   2.1628568315935293    4.2649878047800804    7.0014687896554451
   0.0000000000000000    0.0000000000000000    8.4787161799999993
Gd Zr Sc Fe
1 1 1 9
direct
   0.0005590000000000    0.0005590000000000    0.0005590000000000 Gd
   0.8563620000000000    0.8563620000000000    0.8563620000000000 Zr
   0.1423770000000000    0.1423770000000000    0.1423770000000000 Sc
   0.5000070000000000    0.5000070000000000    0.5000070000000000 Fe
   0.3325880000000000    0.3325880000000000    0.3325880000000000 Fe
   0.6673880000000000    0.6673880000000000    0.6673880000000000 Fe
   0.0833380000000000    0.5850450000000000    0.5850450000000000 Fe
   0.5850450000000000    0.5850450000000000    0.0833380000000000 Fe
   0.5850450000000000    0.0833380000000000    0.5850450000000000 Fe
   0.4149050000000000    0.9174820000000000    0.4149050000000000 Fe
   0.9174820000000000    0.4149050000000000    0.4149050000000000 Fe
   0.4149050000000000    0.4149050000000000    0.9174820000000000 Fe
