Gd1 Sc3 Cr1 Fe19 P12
1.0
   3.6100159999999999    0.0000000000000000    0.0000000000000002
  -0.0000000000000006   10.1805290562773649    0.0320895164075192
   0.0000000000000000    0.0000000000000000   11.7110457599999993
Gd Sc Cr Fe P
1 3 1 19 12
direct
   0.2500000000000000    0.9194460000000000    0.2051090000000000 Gd
   0.2500000000000000    0.5797870000000001    0.7041690000000000 Sc
   0.7500000000000000    0.4208320000000000    0.2963730000000000 Sc
   0.7500000000000000    0.0807820000000000    0.7950590000000000 Sc
   0.2500000000000000    0.7036350000000000    0.9884980000000000 Cr
   0.2500000000000000    0.7910500000000000    0.4887580000000000 Fe
   0.7500000000000000    0.2922290000000000    0.0104050000000000 Fe
   0.7500000000000000    0.2095800000000000    0.5118750000000000 Fe
   0.2500000000000000    0.4063960000000000    0.4886560000000000 Fe
   0.2500000000000000    0.0954720000000000    0.9874900000000000 Fe
   0.7500000000000000    0.5931550000000000    0.5121740000000000 Fe
   0.7500000000000000    0.9064800000000000    0.0086110000000000 Fe
   0.2500000000000000    0.2210170000000000    0.1763460000000000 Fe
   0.2500000000000000    0.2803680000000000    0.6760090000000000 Fe
   0.7500000000000000    0.7818640000000000    0.8224480000000000 Fe
   0.7500000000000000    0.7183740000000000    0.3255660000000000 Fe
   0.2500000000000000    0.8764010000000000    0.7013850000000000 Fe
   0.2500000000000000    0.6217610000000000    0.2025440000000000 Fe
   0.7500000000000000    0.1256600000000000    0.2998850000000000 Fe
   0.7500000000000000    0.3762330000000000    0.7982260000000000 Fe
   0.2500000000000000    0.4611290000000000    0.9311270000000000 Fe
   0.2500000000000000    0.0391990000000000    0.4338540000000000 Fe
   0.7500000000000000    0.5332680000000000    0.0665740000000000 Fe
   0.7500000000000000    0.9631910000000000    0.5697060000000000 Fe
   0.2500000000000000    0.4222680000000000    0.1157560000000000 P
   0.2500000000000000    0.0787760000000000    0.6161570000000000 P
   0.7500000000000000    0.5777200000000000    0.8832000000000000 P
   0.7500000000000000    0.9216700000000000    0.3880830000000000 P
   0.2500000000000000    0.2612550000000000    0.8684350000000000 P
   0.2500000000000000    0.2388650000000000    0.3699580000000000 P
   0.7500000000000000    0.7334790000000000    0.1316310000000000 P
   0.7500000000000000    0.7610470000000000    0.6292840000000000 P
   0.2500000000000000    0.5986650000000000    0.3941700000000000 P
   0.2500000000000000    0.9063650000000000    0.8920880000000000 P
   0.7500000000000000    0.4011610000000000    0.6057250000000000 P
   0.7500000000000000    0.1014190000000000    0.1046640000000000 P
