Gd1 Lu1 Fe3 Co1
1.0
   4.4047910832173276    0.0000000000000000    2.5319781633643212
   1.4650425310761457    4.1540144374463113    2.5319785926804830
   0.0000000000000000    0.0000000000000000    5.0806602800000000
Gd Lu Fe Co
1 1 3 1
direct
   0.4997260000000000    0.4997260000000000    0.4997260000000000 Gd
   0.7501930000000000    0.7501930000000000    0.7501930000000000 Lu
   0.6255849999999999    0.1248080000000000    0.1248080000000000 Fe
   0.1248080000000000    0.6255849999999999    0.1248080000000000 Fe
   0.1248080000000000    0.1248080000000000    0.6255849999999999 Fe
   0.1248810000000000    0.1248810000000000    0.1248810000000000 Co
