Gd1 V2 Fe10
1.0
   4.3806117708717647    0.0000000000000000   -1.7207301111446098
   2.2088715082665646    5.9905936086776999   -0.8131009397415829
   0.0000000000000000    0.0000000000000000    6.4364165699999996
Gd V Fe
1 2 10
direct
   0.0000000000000000    0.0000000000000000    0.0000000000000000 Gd
   0.0000000000000000    0.3589490000000000    0.3589490000000000 V
   0.0000000000000000    0.6410510000000000    0.6410510000000000 V
   0.7257680000000000    0.7742320000000000    0.2257680000000000 Fe
   0.2742320000000000    0.2257680000000000    0.7742320000000000 Fe
   0.5000000000000000    0.7721990000000000    0.7721990000000000 Fe
   0.5000000000000000    0.2278010000000000    0.2278010000000000 Fe
   0.5000000000000000    0.0000000000000000    0.5000000000000000 Fe
   0.0000000000000000    0.0000000000000000    0.5000000000000000 Fe
   0.5000000000000000    0.5000000000000000    0.0000000000000000 Fe
   0.0000000000000000    0.5000000000000000    0.0000000000000000 Fe
   0.6404220000000000    0.3595780000000000    0.6404220000000000 Fe
   0.3595780000000000    0.6404220000000000    0.3595780000000000 Fe
