Gd2 Al2 Fe4
1.0
   5.0051310000000004    0.0000000000000000    0.0000000000000003
  -0.0000000000000002    3.9583930000000001    0.0000000000000002
   0.0000000000000000    0.0000000000000000    6.8977529999999998
Gd Al Fe
2 2 4
direct
   0.7500010000000000    0.0000000000000000    0.1884170000000000 Gd
   0.2500000000000000    0.0000000000000000    0.8099130000000000 Gd
   0.2500000000000000    0.5000010000000000    0.1688600000000000 Al
   0.7500010000000000    0.5000010000000000    0.8306590000000000 Al
   0.2500000000000000    0.0000000000000000    0.4053950000000000 Fe
   0.0003530000000000    0.5000010000000000    0.5004850000000000 Fe
   0.4996460000000000    0.5000010000000000    0.5004850000000000 Fe
   0.7500010000000000    0.0000000000000000    0.5957860000000000 Fe
