Gd4 Fe13 Co1
1.0
   4.9626552972966431    0.0000000000000000   11.2859187379766972
   2.3717433451318790    4.3592178559670502   11.2859186855314846
   0.0000000000000000    0.0000000000000000   12.3288247799999997
Gd Fe Co
4 13 1
direct
   0.9476640000000000    0.9476640000000000    0.9476640000000000 Gd
   0.1496290000000000    0.1496290000000000    0.1496290000000000 Gd
   0.0523730000000000    0.0523730000000000    0.0523730000000000 Gd
   0.8503020000000000    0.8503020000000000    0.8503020000000000 Gd
   0.6123370000000000    0.6123370000000000    0.6123370000000000 Fe
   0.3876110000000000    0.3876110000000000    0.3876110000000000 Fe
   0.1075580000000000    0.6100760000000000    0.6100760000000000 Fe
   0.3897880000000000    0.3897880000000000    0.8921010000000000 Fe
   0.6100760000000000    0.6100760000000000    0.1075580000000000 Fe
   0.6100760000000000    0.1075580000000000    0.6100760000000000 Fe
   0.3897880000000000    0.8921010000000000    0.3897880000000000 Fe
   0.5002600000000000    0.0001900000000000    0.5002600000000000 Fe
   0.7209840000000000    0.7209840000000000    0.7209840000000000 Fe
   0.8921010000000000    0.3897880000000000    0.3897880000000000 Fe
   0.0001900000000000    0.5002600000000000    0.5002600000000000 Fe
   0.2789600000000000    0.2789600000000000    0.2789600000000000 Fe
   0.5002600000000000    0.5002600000000000    0.0001900000000000 Fe
   0.5000400000000000    0.5000400000000000    0.5000400000000000 Co
