Gd6 Fe14 B4
1.0
   5.0913620000000002    0.0000000000000000    0.0000000000000003
  -2.5456810001535985    4.4092480003896597    0.0000000000000003
   0.0000000000000000    0.0000000000000000   14.4279340000000005
Gd Fe B
6 14 4
direct
   0.3333333333333333    0.6666666666666666    0.2500000000000000 Gd
   0.3333333333333333    0.6666666666666666    0.4657100000000000 Gd
   0.6666666666666666    0.3333333333333333    0.9649190000000000 Gd
   0.6666666666666666    0.3333333333333333    0.5350810000000000 Gd
   0.3333333333333333    0.6666666666666666    0.0342900000000000 Gd
   0.6666666666666666    0.3333333333333333    0.7500000000000000 Gd
   0.8337770000000000    0.6675560000000000    0.3547490000000000 Fe
   0.3324440000000000    0.1662230000000000    0.3547490000000000 Fe
   0.0000000000000000    0.0000000000000000    0.9997090000000000 Fe
   0.0000000000000000    0.0000000000000000    0.5002910000000000 Fe
   0.8337770000000000    0.1662230000000000    0.1452510000000000 Fe
   0.6676200000000000    0.8338100000000001    0.6460430000000000 Fe
   0.1661900000000000    0.3323800000000000    0.6460430000000000 Fe
   0.8337770000000000    0.6675560000000000    0.1452510000000000 Fe
   0.3324440000000000    0.1662230000000000    0.1452510000000000 Fe
   0.6676200000000000    0.8338100000000001    0.8539570000000000 Fe
   0.1661900000000000    0.3323800000000000    0.8539570000000000 Fe
   0.1661900000000000    0.8338100000000001    0.6460430000000000 Fe
   0.1661900000000000    0.8338100000000001    0.8539570000000000 Fe
   0.8337770000000000    0.1662230000000000    0.3547490000000000 Fe
   0.6666666666666666    0.3333333333333333    0.2500000000000000 B
   0.3333333333333333    0.6666666666666666    0.7500000000000000 B
   0.0000000000000000    0.0000000000000000    0.7500000000000000 B
   0.0000000000000000    0.0000000000000000    0.2500000000000000 B
