Gd2 Ga3 Fe14 C3
1.0
   6.4747539634444458    0.0000000000000000    0.7583768290290085
   0.6747341287151317    6.4395005003587746    0.7583765188596415
   0.0000000000000000    0.0000000000000000    6.5190170800000002
Gd Ga Fe C
2 3 14 3
direct
   0.6566450000000000    0.6566450000000000    0.6566450000000000 Gd
   0.3433550000000000    0.3433550000000000    0.3433550000000000 Gd
   0.0000000000000000    0.0000000000000000    0.5000000000000000 Ga
   0.5000000000000000    0.0000000000000000    0.0000000000000000 Ga
   0.0000000000000000    0.5000000000000000    0.0000000000000000 Ga
   0.7143810000000000    0.2856190000000000    0.0000000000000000 Fe
   0.0000000000000000    0.7143810000000000    0.2856190000000000 Fe
   0.2856190000000000    0.0000000000000000    0.7143810000000000 Fe
   0.0000000000000000    0.2856190000000000    0.7143810000000000 Fe
   0.7143810000000000    0.0000000000000000    0.2856190000000000 Fe
   0.2856190000000000    0.7143810000000000    0.0000000000000000 Fe
   0.3456210000000000    0.8511430000000000    0.3456210000000000 Fe
   0.3456210000000000    0.3456210000000000    0.8511430000000000 Fe
   0.8511430000000000    0.3456210000000000    0.3456210000000000 Fe
   0.6543790000000000    0.1488570000000000    0.6543790000000000 Fe
   0.6543790000000000    0.6543790000000000    0.1488570000000000 Fe
   0.1488570000000000    0.6543790000000000    0.6543790000000000 Fe
   0.9075470000000000    0.9075470000000000    0.9075470000000000 Fe
   0.0924530000000000    0.0924530000000000    0.0924530000000000 Fe
   0.5000000000000000    0.5000000000000000    0.0000000000000000 C
   0.0000000000000000    0.5000000000000000    0.5000000000000000 C
   0.5000000000000000    0.0000000000000000    0.5000000000000000 C
