Gd1 Y1 Fe8 B2
1.0
   5.0697590000000003    0.0000000000000000    0.0000000000000003
  -2.5348799985437704    4.3905409981189720    0.0000000000000003
   0.0000000000000000    0.0000000000000000    7.0609599999999997
Gd Y Fe B
1 1 8 2
direct
   0.0000000000000000    0.0000000000000000    0.5000000000000000 Gd
   0.0000000000000000    0.0000000000000000    0.0000000000000000 Y
   0.6666666666666666    0.3333333333333333    0.0000000000000000 Fe
   0.3333333333333333    0.6666666666666666    0.0000000000000000 Fe
   0.5000000000000000    0.5000000000000000    0.7132830000000000 Fe
   0.5000000000000000    0.0000000000000000    0.7132830000000000 Fe
   0.0000000000000000    0.5000000000000000    0.7132830000000000 Fe
   0.5000000000000000    0.5000000000000000    0.2867170000000000 Fe
   0.5000000000000000    0.0000000000000000    0.2867170000000000 Fe
   0.0000000000000000    0.5000000000000000    0.2867170000000000 Fe
   0.6666666666666666    0.3333333333333333    0.5000000000000000 B
   0.3333333333333333    0.6666666666666666    0.5000000000000000 B
