Gd3 Fe7 Co2
1.0
   4.8764356294015618    0.0000000000000000    7.1271107147981070
   2.2048674008052922    4.3495043523906425    7.1271107549028967
   0.0000000000000000    0.0000000000000000    8.6357030699999999
Gd Fe Co
3 7 2
direct
   0.0000360000000000    0.0000360000000000    0.0000360000000000 Gd
   0.1420160000000000    0.1420160000000000    0.1420160000000000 Gd
   0.8579380000000000    0.8579380000000000    0.8579380000000000 Gd
   0.6673770000000000    0.6673770000000000    0.6673770000000000 Fe
   0.0820210000000000    0.5816640000000000    0.5816640000000000 Fe
   0.5816640000000000    0.5816640000000000    0.0820210000000000 Fe
   0.5816640000000000    0.0820210000000000    0.5816640000000000 Fe
   0.4186220000000000    0.9176299999999999    0.4186220000000000 Fe
   0.9176299999999999    0.4186220000000000    0.4186220000000000 Fe
   0.4186220000000000    0.4186220000000000    0.9176299999999999 Fe
   0.5000070000000000    0.5000070000000000    0.5000070000000000 Co
   0.3324020000000000    0.3324020000000000    0.3324020000000000 Co
