Gd2 Y4 Fe14 B4
1.0
   5.1295503199999999    0.0000000000000000    0.0000000000000003
  -2.5656464810427244    4.4418174732100484    0.0000000000000003
   0.0000000000000000    0.0000000000000000   14.5533760000000001
Gd Y Fe B
2 4 14 4
direct
   0.6666666666666666    0.3333333333333333    0.2500000000000000 Gd
   0.3333333333333333    0.6666666666666666    0.7500000000000000 Gd
   0.6666666666666666    0.3333333333333333    0.0345530000000000 Y
   0.3333333333333333    0.6666666666666666    0.9654470000000001 Y
   0.3333333333333333    0.6666666666666666    0.5345529999999999 Y
   0.6666666666666666    0.3333333333333333    0.4654470000000000 Y
   0.8344430000000000    0.6689200000000000    0.6470560000000000 Fe
   0.8344460000000000    0.1655540000000000    0.6470650000000000 Fe
   0.3310800000000000    0.1655570000000000    0.6470560000000000 Fe
   0.1655570000000000    0.3310800000000000    0.3529440000000000 Fe
   0.1655540000000000    0.8344460000000000    0.3529350000000000 Fe
   0.6689200000000000    0.8344430000000000    0.3529440000000000 Fe
   0.1655570000000000    0.3310800000000000    0.1470560000000000 Fe
   0.1655540000000000    0.8344460000000000    0.1470650000000000 Fe
   0.6689200000000000    0.8344430000000000    0.1470560000000000 Fe
   0.8344430000000000    0.6689200000000000    0.8529440000000000 Fe
   0.8344460000000000    0.1655540000000000    0.8529350000000000 Fe
   0.3310800000000000    0.1655570000000000    0.8529440000000000 Fe
   0.0000000000000000    0.0000000000000000    0.5000000000000000 Fe
   0.0000000000000000    0.0000000000000000    0.0000000000000000 Fe
   0.6666666666666666    0.3333333333333333    0.7500000000000000 B
   0.3333333333333333    0.6666666666666666    0.2500000000000000 B
   0.9999890000000000    0.0000110000000000    0.7500000000000000 B
   0.0000110000000000    0.9999890000000000    0.2500000000000000 B
