Gd6 Ga1 Co22
1.0
   7.2119910021870206    0.0000000000000000    4.1638460004823932
   2.4039979996974981    6.7995299975609207    4.1638459978950957
   0.0000000000000000    0.0000000000000000    8.3276889999999995
Gd Ga Co
6 1 22
direct
   0.7859810000000000    0.2140190000000000    0.7859810000000000 Gd
   0.2140190000000000    0.2140190000000000    0.7859810000000000 Gd
   0.7859810000000000    0.7859810000000000    0.2140190000000000 Gd
   0.7859810000000000    0.2140190000000000    0.2140190000000000 Gd
   0.2140190000000000    0.7859810000000000    0.7859810000000000 Gd
   0.2140190000000000    0.7859810000000000    0.2140190000000000 Gd
   0.5000000000000000    0.5000000000000000    0.5000000000000000 Ga
   0.8230880000000000    0.8230880000000000    0.8230880000000000 Co
   0.4692640000000000    0.1769120000000000    0.1769120000000000 Co
   0.1769120000000000    0.1769120000000000    0.4692640000000000 Co
   0.1769120000000000    0.4692640000000000    0.1769120000000000 Co
   0.8230880000000000    0.8230880000000000    0.5307360000000000 Co
   0.8230880000000000    0.5307360000000000    0.8230880000000000 Co
   0.0000000000000000    0.5000000000000000    0.0000000000000000 Co
   0.5000000000000000    0.0000000000000000    0.0000000000000000 Co
   0.0000000000000000    0.5000000000000000    0.5000000000000000 Co
   0.5000000000000000    0.0000000000000000    0.5000000000000000 Co
   0.0000000000000000    0.0000000000000000    0.5000000000000000 Co
   0.5000000000000000    0.5000000000000000    0.0000000000000000 Co
   0.3744180000000000    0.3744180000000000    0.3744180000000000 Co
   0.1232550000000000    0.6255820000000000    0.6255810000000001 Co
   0.6255810000000001    0.1232550000000000    0.6255810000000001 Co
   0.6255820000000000    0.6255820000000000    0.1232550000000000 Co
   0.3744190000000000    0.8767450000000000    0.3744180000000000 Co
   0.3744190000000000    0.3744180000000000    0.8767440000000000 Co
   0.8767440000000000    0.3744190000000000    0.3744180000000000 Co
   0.6255820000000000    0.6255820000000000    0.6255810000000001 Co
   0.1769120000000000    0.1769120000000000    0.1769120000000000 Co
   0.5307360000000000    0.8230880000000000    0.8230880000000000 Co
