Gd5 Y1 Fe18
1.0
   5.0925859999999998    0.0000000000000000    0.0000000000000003
  -2.5462929988020053    4.4103089977597110    0.0000000000000003
   0.0000000000000000    0.0000000000000000   16.0910399999999996
Gd Y Fe
5 1 18
direct
   0.3333333333333333    0.6666666666666666    0.5367900000000000 Gd
   0.3333333333333333    0.6666666666666666    0.7507720000000000 Gd
   0.3333333333333333    0.6666666666666666    0.9634790000000000 Gd
   0.6666666666666666    0.3333333333333333    0.0368800000000000 Gd
   0.6666666666666666    0.3333333333333333    0.4626630000000000 Gd
   0.6666666666666666    0.3333333333333333    0.2496020000000000 Y
   0.1669360000000000    0.8330640000000000    0.3727270000000000 Fe
   0.1669360000000000    0.3338720000000000    0.3727270000000000 Fe
   0.6661280000000001    0.8330640000000000    0.3727270000000000 Fe
   0.8331229999999999    0.1668770000000000    0.6273210000000000 Fe
   0.8331229999999999    0.6662439999999999    0.6273210000000000 Fe
   0.3337560000000000    0.1668770000000000    0.6273210000000000 Fe
   0.8328210000000000    0.1671790000000000    0.8736050000000000 Fe
   0.8328210000000000    0.6656410000000000    0.8736050000000000 Fe
   0.3343590000000000    0.1671790000000000    0.8736050000000000 Fe
   0.1671730000000000    0.8328270000000000    0.1263470000000000 Fe
   0.1671730000000000    0.3343470000000000    0.1263470000000000 Fe
   0.6656530000000001    0.8328270000000000    0.1263470000000000 Fe
   0.3333333333333333    0.6666666666666666    0.2496240000000000 Fe
   0.6666666666666666    0.3333333333333333    0.7503110000000000 Fe
   0.0000000000000000    0.0000000000000000    0.2495810000000000 Fe
   0.0000000000000000    0.0000000000000000    0.7504580000000000 Fe
   0.0000000000000000    0.0000000000000000    0.4997570000000000 Fe
   0.0000000000000000    0.0000000000000000    0.0000860000000000 Fe
