Gd2 Zr3 Fe19 P12
1.0
  11.8340599999999991    0.0000000000000000    0.0000000000000007
  -5.9170310023896429   10.2485970042217840    0.0000000000000007
   0.0000000000000000    0.0000000000000000    3.6374909999999998
Gd Zr Fe P
2 3 19 12
direct
   0.3333333333333333    0.6666666666666666    0.5000000000000000 Gd
   0.6666666666666666    0.3333333333333333    0.5000000000000000 Gd
   0.8164030000000000    0.0000000000000000    0.0000000000000000 Zr
   0.0000000000000000    0.8164030000000000    0.0000000000000000 Zr
   0.1835970000000000    0.1835970000000000    0.0000000000000000 Zr
   0.6245420000000000    0.8042560000000000    0.5000000000000000 Fe
   0.1957440000000000    0.8202870000000000    0.5000000000000000 Fe
   0.1797130000000000    0.3754580000000000    0.5000000000000000 Fe
   0.3754580000000000    0.1797130000000000    0.5000000000000000 Fe
   0.8042560000000000    0.6245420000000000    0.5000000000000000 Fe
   0.8202870000000000    0.1957440000000000    0.5000000000000000 Fe
   0.2816990000000000    0.0000000000000000    0.0000000000000000 Fe
   0.0000000000000000    0.2816990000000000    0.0000000000000000 Fe
   0.7183010000000000    0.7183010000000000    0.0000000000000000 Fe
   0.4420080000000000    0.0000000000000000    0.5000000000000000 Fe
   0.0000000000000000    0.4420080000000000    0.5000000000000000 Fe
   0.5579920000000000    0.5579920000000000    0.5000000000000000 Fe
   0.5193440000000000    0.8777050000000000    0.0000000000000000 Fe
   0.1222950000000000    0.6416410000000000    0.0000000000000000 Fe
   0.3583590000000000    0.4806560000000000    0.0000000000000000 Fe
   0.4806560000000000    0.3583590000000000    0.0000000000000000 Fe
   0.8777050000000000    0.5193440000000000    0.0000000000000000 Fe
   0.6416410000000000    0.1222950000000000    0.0000000000000000 Fe
   0.0000000000000000    0.0000000000000000    0.5000000000000000 Fe
   0.1803050000000000    0.0000000000000000    0.5000000000000000 P
   0.0000000000000000    0.1803050000000000    0.5000000000000000 P
   0.8196950000000000    0.8196950000000000    0.5000000000000000 P
   0.5206560000000000    0.6849670000000000    0.0000000000000000 P
   0.3150330000000000    0.8356890000000000    0.0000000000000000 P
   0.1643110000000000    0.4793440000000000    0.0000000000000000 P
   0.4793440000000000    0.1643110000000000    0.0000000000000000 P
   0.6849670000000000    0.5206560000000000    0.0000000000000000 P
   0.8356890000000000    0.3150330000000000    0.0000000000000000 P
   0.6313340000000000    0.0000000000000000    0.5000000000000000 P
   0.0000000000000000    0.6313340000000000    0.5000000000000000 P
   0.3686660000000000    0.3686660000000000    0.5000000000000000 P
