Gd4 Al2 Fe6
1.0
   5.1859501200000002    0.0000000000000000    0.0000000000000003
   2.5933020808018266    4.4913526775921699    0.0000000000000003
   0.0000000000000000    0.0000000000000000    8.3557039999999994
Gd Al Fe
4 2 6
direct
   0.3333333333333333    0.3333333333333333    0.5657660000000000 Gd
   0.6666666666666666    0.6666666666666666    0.4342340000000000 Gd
   0.6666666666666666    0.6666666666666666    0.0657660000000000 Gd
   0.3333333333333333    0.3333333333333333    0.9342340000000000 Gd
   0.0000000000000000    0.0000000000000000    0.5000000000000000 Al
   0.0000000000000000    0.0000000000000000    0.0000000000000000 Al
   0.8270210000000000    0.3459940000000000    0.7500000000000000 Fe
   0.3460030000000000    0.8269990000000000    0.7500000000000000 Fe
   0.8270210000000000    0.8269850000000000    0.7500000000000000 Fe
   0.1729790000000000    0.6540060000000000    0.2500000000000000 Fe
   0.6539970000000001    0.1730010000000000    0.2500000000000000 Fe
   0.1729790000000000    0.1730150000000000    0.2500000000000000 Fe
