Gd6 Fe16 Co7
1.0
   7.2759859972240664    0.0000000000000000    4.2007909976480162
   2.4253289993699965    6.8598649969132337    4.2007909981292650
   0.0000000000000000    0.0000000000000000    8.4015830000000005
Gd Fe Co
6 16 7
direct
   0.7071890000000000    0.2928110000000000    0.2928110000000000 Gd
   0.2928110000000000    0.7071890000000000    0.7071890000000000 Gd
   0.2928110000000000    0.7071890000000000    0.2928110000000000 Gd
   0.2928110000000000    0.2928110000000000    0.7071890000000000 Gd
   0.7071890000000000    0.2928110000000000    0.7071890000000000 Gd
   0.7071890000000000    0.7071890000000000    0.2928110000000000 Gd
   0.3254610000000000    0.3254610000000000    0.3254610000000000 Fe
   0.3254610000000000    0.3254610000000000    0.0236180000000000 Fe
   0.0236180000000000    0.3254610000000000    0.3254610000000000 Fe
   0.3254610000000000    0.0236180000000000    0.3254610000000000 Fe
   0.6745390000000000    0.6745390000000000    0.6745390000000000 Fe
   0.6745390000000000    0.6745390000000000    0.9763820000000000 Fe
   0.6745390000000000    0.9763820000000000    0.6745390000000000 Fe
   0.9763820000000000    0.6745390000000000    0.6745390000000000 Fe
   0.1220060000000000    0.1220060000000000    0.1220060000000000 Fe
   0.1220060000000000    0.1220060000000000    0.6339800000000000 Fe
   0.6339800000000000    0.1220060000000000    0.1220060000000000 Fe
   0.1220060000000000    0.6339800000000000    0.1220060000000000 Fe
   0.8779940000000001    0.8779940000000001    0.8779940000000001 Fe
   0.8779940000000001    0.8779940000000001    0.3660200000000000 Fe
   0.8779940000000001    0.3660200000000000    0.8779940000000001 Fe
   0.3660200000000000    0.8779940000000001    0.8779940000000001 Fe
   0.5000000000000000    0.0000000000000000    0.0000000000000000 Co
   0.0000000000000000    0.5000000000000000    0.5000000000000000 Co
   0.0000000000000000    0.5000000000000000    0.0000000000000000 Co
   0.0000000000000000    0.0000000000000000    0.5000000000000000 Co
   0.5000000000000000    0.0000000000000000    0.5000000000000000 Co
   0.5000000000000000    0.5000000000000000    0.0000000000000000 Co
   0.0000000000000000    0.0000000000000000    0.0000000000000000 Co
