Ce1 Gd1 Co17
1.0
   6.2313494292395317    0.0000000000000000    0.7684188225254935
   0.6794806062321973    6.1941923584512306    0.7684185470876899
   0.0000000000000000    0.0000000000000000    6.2785481799999996
Ce Gd Co
1 1 17
direct
   0.6526170000000000    0.6526170000000000    0.6526170000000000 Ce
   0.3425320000000000    0.3425320000000000    0.3425320000000000 Gd
   0.7137520000000001    0.2886720000000000    0.9998020000000000 Co
   0.9998020000000000    0.7137520000000001    0.2886720000000000 Co
   0.2886720000000000    0.9998020000000000    0.7137520000000001 Co
   0.9998020000000000    0.2886720000000000    0.7137520000000001 Co
   0.7137520000000001    0.9998020000000000    0.2886720000000000 Co
   0.2886720000000000    0.7137520000000001    0.9998020000000000 Co
   0.3471610000000000    0.3471610000000000    0.8477520000000000 Co
   0.8477520000000000    0.3471610000000000    0.3471610000000000 Co
   0.3471610000000000    0.8477520000000000    0.3471610000000000 Co
   0.6539320000000000    0.6539320000000000    0.1430310000000000 Co
   0.1430310000000000    0.6539320000000000    0.6539320000000000 Co
   0.6539320000000000    0.1430310000000000    0.6539320000000000 Co
   0.0041070000000000    0.0041070000000000    0.4991490000000000 Co
   0.4991490000000000    0.0041070000000000    0.0041070000000000 Co
   0.0041070000000000    0.4991490000000000    0.0041070000000000 Co
   0.9030250000000000    0.9030250000000000    0.9030250000000000 Co
   0.0970380000000000    0.0970380000000000    0.0970380000000000 Co
