Gd2 Al3 Fe14 C3
1.0
   6.4793359271236532    0.0000000000000000    0.7347956412530654
   0.6562128283207392    6.4461284400361674    0.7347915893399072
   0.0000000000000000    0.0000000000000000    6.5213987700000002
Gd Al Fe C
2 3 14 3
direct
   0.6566800000000000    0.6566650000000001    0.6566630000000000 Gd
   0.3433740000000000    0.3433500000000000    0.3433720000000000 Gd
   0.9999850000000000    0.9999430000000000    0.5000590000000000 Al
   0.5000910000000000    0.9999830000000000    0.9999340000000000 Al
   0.9999610000000000    0.5000329999999999    0.0000200000000000 Al
   0.7143160000000000    0.2856810000000000    0.0000110000000000 Fe
   0.9999460000000000    0.7143520000000000    0.2856600000000000 Fe
   0.2856950000000000    0.0000280000000000    0.7143280000000000 Fe
   0.9999870000000000    0.2856900000000000    0.7143320000000000 Fe
   0.7143500000000000    0.9999970000000000    0.2856610000000000 Fe
   0.2857110000000000    0.7142810000000001    0.0000180000000000 Fe
   0.3447390000000000    0.3447220000000000    0.8525600000000000 Fe
   0.8525260000000000    0.3447490000000000    0.3447540000000000 Fe
   0.3447510000000000    0.8525970000000000    0.3447360000000000 Fe
   0.6552730000000000    0.6552600000000000    0.1474140000000000 Fe
   0.1473790000000000    0.6552510000000000    0.6552550000000000 Fe
   0.6552500000000000    0.1474560000000000    0.6552400000000000 Fe
   0.9072560000000000    0.9072850000000000    0.9073070000000000 Fe
   0.0926950000000000    0.0927090000000000    0.0926940000000000 Fe
   0.5000160000000000    0.4999840000000000    0.0000060000000000 C
   0.0000070000000000    0.4999870000000000    0.4999730000000000 C
   0.5000120000000000    0.9999960000000000    0.5000050000000000 C
