Gd3 Lu3 Co23
1.0
   7.1752381044919797    0.0000000000000000    4.1398290585276136
  -4.7818784550533211    6.7643074042434046   -0.0000004771156670
   0.0000000000000000    0.0000000000000000    8.2880505800000002
Gd Lu Co
3 3 23
direct
   0.4252610000000000    0.7126310000000000    0.2875600000000000 Gd
   0.9998100000000000    0.2871790000000000    0.2875600000000000 Gd
   0.9998100000000000    0.7126310000000000    0.2875600000000000 Gd
   0.5737270000000000    0.2868640000000000    0.7135700000000000 Lu
   0.9995660000000000    0.7127019999999999    0.7135700000000000 Lu
   0.9995660000000000    0.2868640000000000    0.7135700000000000 Lu
   0.6467930000000000    0.3233970000000000    0.0298100000000000 Co
   0.3533070000000000    0.3231720000000000    0.3235200000000000 Co
   0.3533070000000000    0.0301350000000000    0.3235200000000000 Co
   0.6463449999999999    0.3231720000000000    0.3235200000000000 Co
   0.3535920000000000    0.6767960000000000    0.9696120000000000 Co
   0.6466210000000000    0.6764980000000000    0.6768810000000000 Co
   0.6466210000000000    0.9701230000000000    0.6768810000000000 Co
   0.3529960000000000    0.6764980000000000    0.6768810000000000 Co
   0.0002840000000000    0.0001410000000000    0.9995760000000000 Co
   0.2457190000000000    0.1228600000000000    0.6314210000000000 Co
   0.7544230000000000    0.1232090000000000    0.1223680000000000 Co
   0.7544230000000000    0.6312160000000000    0.1223680000000000 Co
   0.2464160000000000    0.1232090000000000    0.1223680000000000 Co
   0.7540620000000000    0.8770310000000000    0.3689060000000000 Co
   0.2460520000000000    0.8774210000000000    0.8765269999999999 Co
   0.2460520000000000    0.3686300000000000    0.8765269999999999 Co
   0.7548440000000000    0.8774210000000000    0.8765269999999999 Co
   0.9999630000000000    0.9999810000000000    0.5006730000000000 Co
   0.4993450000000000    0.4993640000000000    0.5006730000000000 Co
   0.4993450000000000    0.9999810000000000    0.5006730000000000 Co
   0.9999030000000000    0.4999510000000000    0.9991260000000000 Co
   0.5009220000000000    0.0009710000000000    0.9991260000000000 Co
   0.5009220000000000    0.4999510000000000    0.9991260000000000 Co
