Gd1 Y2 Lu3 Fe18
1.0
   5.0794579999999998    0.0000000000000000    0.0000000000000003
  -2.5397289998933870    4.3989400003808035    0.0000000000000003
   0.0000000000000000    0.0000000000000000   16.0366269999999993
Gd Y Lu Fe
1 2 3 18
direct
   0.3333333333333333    0.6666666666666666    0.9635089999999999 Gd
   0.3333333333333333    0.6666666666666666    0.7498240000000000 Y
   0.6666666666666666    0.3333333333333333    0.2499430000000000 Y
   0.6666666666666666    0.3333333333333333    0.0368590000000000 Lu
   0.6666666666666666    0.3333333333333333    0.4634110000000000 Lu
   0.3333333333333333    0.6666666666666666    0.5365060000000000 Lu
   0.1673390000000000    0.8326610000000000    0.3738870000000000 Fe
   0.1673390000000000    0.3346780000000000    0.3738870000000000 Fe
   0.6653220000000000    0.8326610000000000    0.3738870000000000 Fe
   0.8325880000000000    0.1674120000000000    0.6261630000000000 Fe
   0.8325880000000000    0.6651760000000000    0.6261630000000000 Fe
   0.3348240000000000    0.1674120000000000    0.6261630000000000 Fe
   0.8327080000000000    0.1672920000000000    0.8735600000000000 Fe
   0.8327080000000000    0.6654160000000000    0.8735600000000000 Fe
   0.3345840000000000    0.1672920000000000    0.8735600000000000 Fe
   0.1671320000000000    0.8328680000000001    0.1263440000000000 Fe
   0.1671320000000000    0.3342640000000000    0.1263440000000000 Fe
   0.6657360000000000    0.8328680000000001    0.1263440000000000 Fe
   0.3333333333333333    0.6666666666666666    0.2499050000000000 Fe
   0.6666666666666666    0.3333333333333333    0.7500890000000000 Fe
   0.0000000000000000    0.0000000000000000    0.2499070000000000 Fe
   0.0000000000000000    0.0000000000000000    0.7500230000000000 Fe
   0.0000000000000000    0.0000000000000000    0.5000150000000000 Fe
   0.0000000000000000    0.0000000000000000    0.0001470000000000 Fe
