Gd1 Y1 Fe11 Ni1 P7
1.0
   8.9893611100000008    0.0000000000000000    0.0000000000000006
  -4.4680243904323600    7.8007668485355142    0.0000000000000006
   0.0000000000000000    0.0000000000000000    3.6429450000000001
Gd Y Fe Ni P
1 1 11 1 7
direct
   0.3332770000000000    0.6659020000000000    0.0000000000000000 Gd
   0.0011780000000000    0.0013140000000000    0.5000000000000000 Y
   0.2409650000000000    0.9647150000000000    0.0000000000000000 Fe
   0.0354300000000000    0.2754740000000000    0.0000000000000000 Fe
   0.9386170000000000    0.4859430000000000    0.0000000000000000 Fe
   0.5111540000000000    0.4513850000000000    0.0000000000000000 Fe
   0.5460290000000000    0.0589570000000000    0.0000000000000000 Fe
   0.1007870000000000    0.7171480000000000    0.5000000000000000 Fe
   0.2795600000000000    0.3806600000000000    0.5000000000000000 Fe
   0.6185100000000000    0.8987750000000000    0.5000000000000000 Fe
   0.7656150000000000    0.5554630000000000    0.5000000000000000 Fe
   0.4507620000000000    0.2135390000000000    0.5000000000000000 Fe
   0.7845410000000000    0.2362370000000000    0.5000000000000000 Fe
   0.7280170000000000    0.7632130000000000    0.0000000000000000 Ni
   0.9717370000000000    0.7430610000000000    0.0000000000000000 P
   0.2575310000000000    0.2232340000000000    0.0000000000000000 P
   0.7785029999999999    0.0399380000000000    0.0000000000000000 P
   0.0666180000000000    0.4445340000000000    0.5000000000000000 P
   0.5476250000000000    0.6160120000000000    0.5000000000000000 P
   0.3779630000000000    0.9318570000000000    0.5000000000000000 P
   0.6655810000000000    0.3326370000000000    0.0000000000000000 P
