Gd2 Be1 Co16
1.0
   6.1686261524407282    0.0000000000000000    0.8198744053270285
   0.6267706829614709    6.0913907503632760    0.7155854460802820
   0.0000000000000000    0.0000000000000000    6.2228726700000001
Gd Be Co
2 1 16
direct
   0.6558380000000000    0.6571040000000000    0.6558380000000000 Gd
   0.3441620000000000    0.3428960000000000    0.3441620000000000 Gd
   0.0000000000000000    0.5000000000000000    0.0000000000000000 Be
   0.0000000000000000    0.0000000000000000    0.5000000000000000 Co
   0.5000000000000000    0.0000000000000000    0.0000000000000000 Co
   0.2842540000000000    0.7054440000000000    0.9990160000000000 Co
   0.7110150000000000    0.0000000000000000    0.2889850000000000 Co
   0.0009840000000000    0.2945560000000000    0.7157460000000000 Co
   0.2889850000000000    0.0000000000000000    0.7110150000000000 Co
   0.9990160000000000    0.7054440000000000    0.2842540000000000 Co
   0.7157460000000000    0.2945560000000000    0.0009840000000000 Co
   0.3416020000000000    0.3503350000000000    0.8540380000000000 Co
   0.3474310000000000    0.8455720000000000    0.3474310000000000 Co
   0.8540380000000000    0.3503350000000000    0.3416020000000000 Co
   0.6583980000000000    0.6496650000000000    0.1459620000000000 Co
   0.6525690000000000    0.1544280000000000    0.6525690000000000 Co
   0.1459620000000000    0.6496650000000000    0.6583980000000000 Co
   0.9023420000000000    0.9035810000000000    0.9023420000000000 Co
   0.0976580000000000    0.0964190000000000    0.0976580000000000 Co
