Gd6 Fe5 Co18
1.0
   7.1985570031261927    0.0000000000000000    4.1646870023388383
   2.3707002723856259    6.7937250267371434    4.1646869981829031
   0.0000000000000000    0.0000000000000000    8.3293750000000006
Gd Fe Co
6 5 18
direct
   0.7121210000000000    0.7145650000000000    0.2866570000000000 Gd
   0.2886770000000000    0.7126040000000000    0.2873390000000000 Gd
   0.7113230000000000    0.2873960000000000    0.2886210000000000 Gd
   0.2878790000000000    0.2854350000000000    0.7133429999999999 Gd
   0.7113230000000000    0.2873960000000000    0.7126610000000000 Gd
   0.2886770000000000    0.7126040000000000    0.7113790000000000 Gd
   0.0000000000000000    0.0000000000000000    0.0000000000000000 Fe
   0.0000000000000000    0.0000000000000000    0.5000000000000000 Fe
   0.0000000000000000    0.5000000000000000    0.5000000000000000 Fe
   0.5000000000000000    0.5000000000000000    0.0000000000000000 Fe
   0.0000000000000000    0.5000000000000000    0.0000000000000000 Fe
   0.5000000000000000    0.0000000000000000    0.5000000000000000 Co
   0.5000000000000000    0.0000000000000000    0.0000000000000000 Co
   0.8762390000000000    0.8779150000000000    0.3687940000000000 Co
   0.8773740000000000    0.3663680000000000    0.8781290000000000 Co
   0.3712800000000000    0.8767420000000000    0.8759890000000000 Co
   0.8762390000000000    0.8779150000000000    0.8770520000000001 Co
   0.1237610000000000    0.1220850000000000    0.6312060000000000 Co
   0.1226260000000000    0.6336320000000000    0.1218710000000000 Co
   0.6287199999999999    0.1232580000000000    0.1240110000000000 Co
   0.1237610000000000    0.1220850000000000    0.1229480000000000 Co
   0.6767760000000000    0.6772250000000000    0.9703800000000000 Co
   0.6762120000000000    0.9698810000000000    0.6769530000000000 Co
   0.9715640000000000    0.6754890000000000    0.6764730000000000 Co
   0.6767760000000000    0.6772250000000000    0.6756190000000000 Co
   0.3232240000000000    0.3227750000000000    0.0296200000000000 Co
   0.3237880000000000    0.0301190000000000    0.3230470000000000 Co
   0.0284360000000000    0.3245110000000000    0.3235270000000000 Co
   0.3232240000000000    0.3227750000000000    0.3243810000000000 Co
