Gd1 Hf1 Zr1 Fe9
1.0
   4.7670220178383618    0.0000000000000000    1.4703088577096095
   2.1567655391226515    4.2512184645995976    1.4703088579333534
   0.0000000000000000    0.0000000000000000    8.4629531000000000
Gd Hf Zr Fe
1 1 1 9
direct
   0.0002840000000000    0.0002840000000000    0.9991470000000000 Gd
   0.1425080000000000    0.1425080000000000    0.5724750000000000 Hf
   0.8572820000000000    0.8572820000000000    0.4281530000000000 Zr
   0.0822510000000000    0.5856530000000000    0.7464420000000000 Fe
   0.5856530000000000    0.5856530000000000    0.7464420000000000 Fe
   0.5856530000000000    0.0822510000000000    0.7464420000000000 Fe
   0.9186430000000000    0.4139670000000000    0.2534240000000000 Fe
   0.4139670000000000    0.4139670000000000    0.2534240000000000 Fe
   0.4139670000000000    0.9186430000000000    0.2534240000000000 Fe
   0.3327510000000000    0.3327510000000000    0.0017460000000000 Fe
   0.6671260000000000    0.6671260000000000    0.9986180000000000 Fe
   0.4999120000000000    0.4999120000000000    0.5002640000000000 Fe
