Gd1 Y3 Fe14
1.0
   4.9581341540862889    0.0000000000000000    1.0401677596637691
   2.3699588122163844    4.3550418553868164    1.0401675437651094
   0.0000000000000000    0.0000000000000000   12.3369663200000002
Gd Y Fe
1 3 14
direct
   0.1495190000000000    0.1495190000000000    0.5514430000000000 Gd
   0.9474190000000000    0.9474190000000000    0.1577420000000000 Y
   0.0527970000000000    0.0527970000000000    0.8416110000000000 Y
   0.8502060000000000    0.8502060000000000    0.4493810000000000 Y
   0.4998760000000000    0.4998760000000000    0.5003740000000000 Fe
   0.7212250000000000    0.7212250000000000    0.8363240000000000 Fe
   0.2788530000000000    0.2788530000000000    0.1634420000000000 Fe
   0.6128130000000001    0.6128130000000001    0.1615610000000000 Fe
   0.3871710000000000    0.3871710000000000    0.8384870000000000 Fe
   0.9998970000000000    0.5000559999999999    0.9999910000000000 Fe
   0.5000559999999999    0.9998970000000000    0.9999910000000000 Fe
   0.5000559999999999    0.5000559999999999    0.9999910000000000 Fe
   0.3908940000000000    0.3908940000000000    0.3278400000000000 Fe
   0.8903740000000000    0.3908940000000000    0.3278400000000000 Fe
   0.3908940000000000    0.8903740000000000    0.3278400000000000 Fe
   0.6089580000000000    0.6089580000000000    0.6720480000000000 Fe
   0.1100350000000000    0.6089580000000000    0.6720480000000000 Fe
   0.6089580000000000    0.1100350000000000    0.6720480000000000 Fe
