Gd1 Lu1 Fe8 B2
1.0
   5.0311899999999996    0.0000000000000000    0.0000000000000003
  -2.5155949993887110    4.3571389982514468    0.0000000000000003
   0.0000000000000000    0.0000000000000000    7.0141169999999997
Gd Lu Fe B
1 1 8 2
direct
   0.0000000000000000    0.0000000000000000    0.0000000000000000 Gd
   0.0000000000000000    0.0000000000000000    0.5000000000000000 Lu
   0.6666666666666666    0.3333333333333333    0.0000000000000000 Fe
   0.3333333333333333    0.6666666666666666    0.0000000000000000 Fe
   0.5000000000000000    0.5000000000000000    0.7128060000000001 Fe
   0.5000000000000000    0.0000000000000000    0.7128060000000001 Fe
   0.0000000000000000    0.5000000000000000    0.7128060000000001 Fe
   0.5000000000000000    0.5000000000000000    0.2871940000000000 Fe
   0.5000000000000000    0.0000000000000000    0.2871940000000000 Fe
   0.0000000000000000    0.5000000000000000    0.2871940000000000 Fe
   0.6666666666666666    0.3333333333333333    0.5000000000000000 B
   0.3333333333333333    0.6666666666666666    0.5000000000000000 B
