Gd4 Co6
1.0
   5.3738313821889339    0.0000000000000000   -0.0008537039742856
  -2.7235181532143566    4.6325499503002581    0.0008536346642184
   0.0000000000000000    0.0000000000000000    6.9807190300000004
Gd Co
4 6
direct
   0.8371910000000000    0.1628110000000000    0.9021580000000000 Gd
   0.1626200000000000    0.8373820000000000    0.0980410000000000 Gd
   0.6625630000000000    0.3374380000000000    0.4025300000000000 Gd
   0.3373640000000000    0.6626370000000000    0.5972810000000000 Gd
   0.5000770000000000    0.4999250000000000    0.0001520000000000 Co
   0.1646830000000000    0.3360030000000000    0.2503950000000000 Co
   0.6639969999999999    0.8353159999999999    0.2503950000000000 Co
   0.0001490000000000    0.9998510000000000    0.4997160000000000 Co
   0.3356390000000000    0.1642770000000000    0.7496640000000000 Co
   0.8357220000000000    0.6643610000000000    0.7496640000000000 Co
