Gd4 Fe18 P12 Ru2
1.0
   3.6732670000000001    0.0000000000000000    0.0000000000000002
  -0.0000000000000006   10.2984432396955636    0.0069576547197866
   0.0000000000000000    0.0000000000000000   11.7889696700000002
Gd Fe P Ru
4 18 12 2
direct
   0.2500000000000000    0.9178240000000000    0.2038200000000000 Gd
   0.2500000000000000    0.5819160000000000    0.7035120000000000 Gd
   0.7500000000000000    0.4205180000000000    0.2950580000000000 Gd
   0.7500000000000000    0.0798380000000000    0.7951420000000000 Gd
   0.7500000000000000    0.2907560000000000    0.0108110000000000 Fe
   0.7500000000000000    0.2097850000000000    0.5116380000000000 Fe
   0.2500000000000000    0.4047120000000000    0.4901130000000000 Fe
   0.2500000000000000    0.0958640000000000    0.9894990000000000 Fe
   0.7500000000000000    0.5936750000000000    0.5112270000000000 Fe
   0.7500000000000000    0.9064560000000000    0.0099680000000000 Fe
   0.2500000000000000    0.2196590000000000    0.1761280000000000 Fe
   0.2500000000000000    0.2807450000000000    0.6761560000000000 Fe
   0.7500000000000000    0.7792940000000000    0.8245310000000000 Fe
   0.7500000000000000    0.7198020000000001    0.3248920000000000 Fe
   0.2500000000000000    0.8784490000000000    0.7037730000000000 Fe
   0.2500000000000000    0.6203160000000000    0.2034530000000000 Fe
   0.7500000000000000    0.1267200000000000    0.2977720000000000 Fe
   0.7500000000000000    0.3742660000000000    0.7970460000000000 Fe
   0.2500000000000000    0.4597890000000000    0.9314249999999999 Fe
   0.2500000000000000    0.0407760000000000    0.4326660000000000 Fe
   0.7500000000000000    0.5335060000000000    0.0665420000000000 Fe
   0.7500000000000000    0.9658840000000000    0.5678029999999999 Fe
   0.2500000000000000    0.4222350000000000    0.1134820000000000 P
   0.2500000000000000    0.0776880000000000    0.6142780000000000 P
   0.7500000000000000    0.5739090000000000    0.8845270000000000 P
   0.7500000000000000    0.9260210000000000    0.3862550000000000 P
   0.2500000000000000    0.2633320000000000    0.8701960000000000 P
   0.2500000000000000    0.2369950000000000    0.3706830000000000 P
   0.7500000000000000    0.7307740000000000    0.1324830000000000 P
   0.7500000000000000    0.7674410000000000    0.6328800000000000 P
   0.2500000000000000    0.5960280000000000    0.3944550000000000 P
   0.2500000000000000    0.9040970000000000    0.8944960000000000 P
   0.7500000000000000    0.4009580000000000    0.6036660000000000 P
   0.7500000000000000    0.1002060000000000    0.1029040000000000 P
   0.2500000000000000    0.7064970000000000    0.9882350000000000 Ru
   0.2500000000000000    0.7932680000000000    0.4884830000000000 Ru
