Tm2 Mn1 Co16
1.0
   6.2113380880684623    0.0000000000000000    0.7659629651089509
   0.6773072186339586    6.1742996591789563    0.7659617363890284
   0.0000000000000000    0.0000000000000000    6.2583874100000001
Tm Mn Co
2 1 16
direct
   0.6563099999999999    0.6563099999999999    0.6563099999999999 Tm
   0.3465290000000000    0.3465290000000000    0.3465290000000000 Tm
   0.0974290000000000    0.0974290000000000    0.0974290000000000 Mn
   0.2903820000000000    0.7094710000000000    0.9986620000000000 Co
   0.7094710000000000    0.9986620000000000    0.2903820000000000 Co
   0.9986620000000000    0.2903820000000000    0.7094710000000000 Co
   0.2903820000000000    0.9986620000000000    0.7094710000000000 Co
   0.9986620000000000    0.7094710000000000    0.2903820000000000 Co
   0.7094710000000000    0.2903820000000000    0.9986620000000000 Co
   0.9974210000000000    0.9974210000000000    0.5047300000000000 Co
   0.9974210000000000    0.5047300000000000    0.9974210000000000 Co
   0.5047300000000000    0.9974210000000000    0.9974210000000000 Co
   0.3499280000000000    0.3499280000000000    0.8476830000000000 Co
   0.3499280000000000    0.8476830000000000    0.3499280000000000 Co
   0.8476830000000000    0.3499280000000000    0.3499280000000000 Co
   0.6522590000000000    0.6522590000000000    0.1526370000000000 Co
   0.6522590000000000    0.1526370000000000    0.6522590000000000 Co
   0.1526370000000000    0.6522590000000000    0.6522590000000000 Co
   0.8984330000000000    0.8984330000000000    0.8984330000000000 Co
