Gd2 Zn2 Fe4
1.0
   4.8949090000000002    0.0000000000000000    0.0000000000000003
  -0.0000000000000002    3.9433539999999998    0.0000000000000002
   0.0000000000000000    0.0000000000000000    6.9115599999999997
Gd Zn Fe
2 2 4
direct
   0.7500010000000000    0.0000000000000000    0.1863480000000000 Gd
   0.2500000000000000    0.0000000000000000    0.8115810000000000 Gd
   0.2500000000000000    0.5000010000000000    0.1646650000000000 Zn
   0.7500010000000000    0.5000010000000000    0.8344819999999999 Zn
   0.2500000000000000    0.0000000000000000    0.4118730000000000 Fe
   0.0007290000000000    0.5000010000000000    0.5005920000000000 Fe
   0.4992700000000000    0.5000010000000000    0.5005920000000000 Fe
   0.7500010000000000    0.0000000000000000    0.5898690000000000 Fe
