Gd2 Fe11 P7 W1
1.0
   8.9660106000000006    0.0000000000000000    0.0000000000000005
  -4.4616925475819933    7.8779145065967082    0.0000000000000006
   0.0000000000000000    0.0000000000000000    3.6509179999999999
Gd Fe P W
2 11 7 1
direct
   0.3309400000000000    0.6597840000000000    0.0000000000000000 Gd
   0.6683500000000000    0.3358450000000000    0.5000010000000000 Gd
   0.4312150000000000    0.0517940000000000    0.0000000000000000 Fe
   0.1508130000000000    0.2711130000000000    0.0000000000000000 Fe
   0.9439070000000001    0.3703680000000000    0.0000000000000000 Fe
   0.6328230000000000    0.5771880000000000    0.0000000000000000 Fe
   0.1160650000000000    0.8420760000000000    0.0000000000000000 Fe
   0.7216970000000000    0.8807040000000000    0.0000000000000000 Fe
   0.9039710000000000    0.1223030000000000    0.5000010000000000 Fe
   0.3850270000000000    0.4366890000000000    0.5000010000000000 Fe
   0.0465200000000000    0.6132660000000000    0.5000010000000000 Fe
   0.8807770000000000    0.7864170000000000    0.5000010000000000 Fe
   0.5676750000000000    0.9543980000000000    0.5000010000000000 Fe
   0.9913090000000000    0.9961160000000000    0.0000000000000000 P
   0.7116990000000000    0.1184430000000000    0.0000000000000000 P
   0.4165930000000000    0.3097450000000000    0.0000000000000000 P
   0.8880130000000001    0.5886260000000000    0.0000000000000000 P
   0.1105610000000000    0.4010430000000000    0.5000010000000000 P
   0.6000060000000000    0.7100109999999999    0.5000010000000000 P
   0.2845620000000000    0.8721860000000000    0.5000010000000000 P
   0.2174790000000000    0.1018900000000000    0.5000010000000000 W
