Gd2 Fe7 Si4 Ni1
1.0
   7.0513396600000000    0.0000000000000000    0.0000000000000004
  -0.0357423148568667    7.0675921023377981    0.0000000000000004
   0.0000000000000000    0.0000000000000000    3.7327620000000001
Gd Fe Si Ni
2 7 4 1
direct
   0.4986850000000000    0.5040530000000000    0.5000000000000000 Gd
   0.9993810000000000    0.0026800000000000    0.0000000000000000 Gd
   0.3520430000000000    0.0867260000000000    0.5000000000000000 Fe
   0.1454870000000000    0.5864560000000000    0.0000000000000000 Fe
   0.8505530000000000    0.4151130000000000    0.0000000000000000 Fe
   0.9176160000000000    0.6381940000000000    0.5000000000000000 Fe
   0.0872520000000000    0.3482230000000000    0.5000000000000000 Fe
   0.5828600000000000    0.1523490000000000    0.0000000000000000 Fe
   0.4093980000000000    0.8494690000000000    0.0000000000000000 Fe
   0.7786770000000000    0.2220920000000000    0.5000000000000000 Si
   0.2144430000000000    0.7812380000000000    0.5000000000000000 Si
   0.2791860000000000    0.2852100000000000    0.0000000000000000 Si
   0.7194440000000000    0.7185330000000000    0.0000000000000000 Si
   0.6649750000000000    0.9096649999999999    0.5000000000000000 Ni
