Gd2 Fe1 Co3
1.0
   4.4054434943191856    0.0000000000000000    2.3028258823147660
   1.3947191549481399    4.1788379563793541    2.3028256921903885
   0.0000000000000000    0.0000000000000000    4.9710099000000003
Gd Fe Co
2 1 3
direct
   0.6269200000000000    0.6269200000000000    0.6269200000000000 Gd
   0.3730800000000000    0.3730800000000000    0.3730800000000000 Gd
   0.0000000000000000    0.0000000000000000    0.0000000000000000 Fe
   0.0000000000000000    0.5000000000000000    0.0000000000000000 Co
   0.5000000000000000    0.0000000000000000    0.0000000000000000 Co
   0.0000000000000000    0.0000000000000000    0.5000000000000000 Co
