Gd1 Y1 Fe12 P7
1.0
   8.9226600000000005    0.0000000000000000    0.0000000000000005
  -4.4613299998008085    7.7272499985061538    0.0000000000000005
   0.0000000000000000    0.0000000000000000    3.6430229999999999
Gd Y Fe P
1 1 12 7
direct
   0.3333333333333333    0.6666666666666666    0.0000000000000000 Gd
   0.0000000000000000    0.0000000000000000    0.5000000000000000 Y
   0.7228170000000000    0.7583050000000000    0.0000000000000000 Fe
   0.2416950000000000    0.9645120000000000    0.0000000000000000 Fe
   0.0354880000000000    0.2771830000000000    0.0000000000000000 Fe
   0.9397780000000000    0.4868280000000000    0.0000000000000000 Fe
   0.5131720000000000    0.4529490000000000    0.0000000000000000 Fe
   0.5470510000000000    0.0602220000000000    0.0000000000000000 Fe
   0.0991240000000000    0.7169219999999999    0.5000000000000000 Fe
   0.2830780000000000    0.3822020000000000    0.5000000000000000 Fe
   0.6177980000000000    0.9008760000000000    0.5000000000000000 Fe
   0.7616030000000000    0.5439710000000000    0.5000000000000000 Fe
   0.4560290000000000    0.2176330000000000    0.5000000000000000 Fe
   0.7823670000000000    0.2383970000000000    0.5000000000000000 Fe
   0.9656640000000000    0.7433620000000000    0.0000000000000000 P
   0.2566380000000000    0.2223010000000000    0.0000000000000000 P
   0.7776990000000000    0.0343360000000000    0.0000000000000000 P
   0.0662260000000000    0.4434330000000000    0.5000000000000000 P
   0.5565670000000000    0.6227920000000000    0.5000000000000000 P
   0.3772080000000000    0.9337740000000000    0.5000000000000000 P
   0.6666666666666666    0.3333333333333333    0.0000000000000000 P
