Gd1 Ti1 Nb1 Fe9
1.0
   4.6942011976917399    0.0000000000000000    1.4441923380040769
   2.1249452972276344    4.1857057775375743    1.4441912508798420
   0.0000000000000000    0.0000000000000000    8.3511098300000004
Gd Ti Nb Fe
1 1 1 9
direct
   0.0011680000000000    0.0011680000000000    0.9964960000000000 Gd
   0.1444350000000000    0.1444350000000000    0.5666949999999999 Ti
   0.8552360000000000    0.8552360000000000    0.4342900000000000 Nb
   0.0828620000000000    0.5882010000000000    0.7407370000000000 Fe
   0.5882010000000000    0.5882010000000000    0.7407370000000000 Fe
   0.5882010000000000    0.0828620000000000    0.7407370000000000 Fe
   0.9179389999999999    0.4111040000000000    0.2598520000000000 Fe
   0.4111040000000000    0.4111040000000000    0.2598520000000000 Fe
   0.4111040000000000    0.9179389999999999    0.2598520000000000 Fe
   0.3332820000000000    0.3332820000000000    0.0001530000000000 Fe
   0.6665640000000000    0.6665640000000000    0.0003050000000000 Fe
   0.4999020000000000    0.4999020000000000    0.5002930000000000 Fe
