Gd3 Y1 Cr1 Fe19 P12
1.0
   3.6413679999999999    0.0000000000000000    0.0000000000000002
  -0.0000000000000006   10.2769657208202752    0.0090209048497999
   0.0000000000000000    0.0000000000000000   11.7899321399999994
Gd Y Cr Fe P
3 1 1 19 12
direct
   0.2500000000000000    0.9192760000000000    0.2047070000000000 Gd
   0.7500000000000000    0.4199540000000000    0.2962430000000000 Gd
   0.7500000000000000    0.0805480000000000    0.7947560000000000 Gd
   0.2500000000000000    0.5809460000000000    0.7044710000000000 Y
   0.2500000000000000    0.7037770000000000    0.9897070000000000 Cr
   0.2500000000000000    0.7919920000000000    0.4887790000000000 Fe
   0.7500000000000000    0.2923180000000000    0.0120240000000000 Fe
   0.7500000000000000    0.2079770000000000    0.5104500000000000 Fe
   0.2500000000000000    0.4050320000000000    0.4890800000000000 Fe
   0.2500000000000000    0.0948780000000000    0.9898490000000000 Fe
   0.7500000000000000    0.5940470000000000    0.5093630000000000 Fe
   0.7500000000000000    0.9057370000000000    0.0099520000000000 Fe
   0.2500000000000000    0.2198800000000000    0.1763800000000000 Fe
   0.2500000000000000    0.2800170000000000    0.6762470000000000 Fe
   0.7500000000000000    0.7826959999999999    0.8231800000000000 Fe
   0.7500000000000000    0.7198900000000000    0.3249760000000000 Fe
   0.2500000000000000    0.8773420000000000    0.7007240000000000 Fe
   0.2500000000000000    0.6246080000000001    0.2024330000000000 Fe
   0.7500000000000000    0.1242570000000000    0.2985910000000000 Fe
   0.7500000000000000    0.3745470000000000    0.7996300000000000 Fe
   0.2500000000000000    0.4613660000000000    0.9332279999999999 Fe
   0.2500000000000000    0.0372600000000000    0.4317770000000000 Fe
   0.7500000000000000    0.5341930000000000    0.0676680000000000 Fe
   0.7500000000000000    0.9642730000000000    0.5668339999999999 Fe
   0.2500000000000000    0.4226170000000000    0.1146120000000000 P
   0.2500000000000000    0.0779260000000000    0.6127200000000000 P
   0.7500000000000000    0.5780690000000001    0.8874550000000000 P
   0.7500000000000000    0.9222960000000000    0.3864270000000000 P
   0.2500000000000000    0.2637300000000000    0.8710650000000000 P
   0.2500000000000000    0.2349760000000000    0.3708490000000000 P
   0.7500000000000000    0.7341140000000000    0.1317320000000000 P
   0.7500000000000000    0.7665970000000000    0.6273440000000000 P
   0.2500000000000000    0.6007690000000000    0.3952920000000000 P
   0.2500000000000000    0.9034150000000000    0.8937260000000000 P
   0.7500000000000000    0.3981440000000000    0.6031850000000000 P
   0.7500000000000000    0.1005370000000000    0.1045450000000000 P
