Nd1 Gd1 Fe14 Si3 C3
1.0
   6.4257099688255472    0.0000000000000000    0.6950970271066598
   0.6239610975822335    6.3953436547308113    0.6950967796238431
   0.0000000000000000    0.0000000000000000    6.4631971500000001
Nd Gd Fe Si C
1 1 14 3 3
direct
   0.6506910000000000    0.6506910000000000    0.6506910000000000 Nd
   0.3462680000000000    0.3462680000000000    0.3462680000000000 Gd
   0.7147060000000000    0.2842220000000000    0.0014490000000000 Fe
   0.0014490000000000    0.7147060000000000    0.2842220000000000 Fe
   0.2842220000000000    0.0014490000000000    0.7147060000000000 Fe
   0.0014490000000000    0.2842220000000000    0.7147060000000000 Fe
   0.7147060000000000    0.0014490000000000    0.2842220000000000 Fe
   0.2842220000000000    0.7147060000000000    0.0014490000000000 Fe
   0.3387190000000000    0.8657140000000000    0.3387190000000000 Fe
   0.3387190000000000    0.3387190000000000    0.8657140000000000 Fe
   0.8657140000000000    0.3387190000000000    0.3387190000000000 Fe
   0.6596980000000000    0.1374740000000000    0.6596980000000000 Fe
   0.6596980000000000    0.6596980000000000    0.1374740000000000 Fe
   0.1374740000000000    0.6596980000000000    0.6596980000000000 Fe
   0.9043940000000000    0.9043940000000000    0.9043940000000000 Fe
   0.0974230000000000    0.0974230000000000    0.0974230000000000 Fe
   0.9998510000000000    0.9998510000000000    0.4995080000000000 Si
   0.4995080000000000    0.9998510000000000    0.9998510000000000 Si
   0.9998510000000000    0.4995080000000000    0.9998510000000000 Si
   0.4969160000000000    0.4969160000000000    0.0074060000000000 C
   0.0074060000000000    0.4969160000000000    0.4969160000000000 C
   0.4969160000000000    0.0074060000000000    0.4969160000000000 C
