Gd2 Co4
1.0
   4.3797167562607244    0.0000000000000000    2.5287749923058160
   1.4596240932774791    4.1292406096529763    2.5286682023533960
   0.0000000000000000    0.0000000000000000    5.0572886700000002
Gd Co
2 4
direct
   0.4999804600000000    0.5000003800000000    0.5000348700000000 Gd
   0.2499951600000000    0.2499974200000000    0.2499835000000000 Gd
   0.8752028500000000    0.3744178400000000    0.8751888500000000 Co
   0.8751935800000000    0.8751922000000000    0.8751887500000000 Co
   0.8752093500000000    0.8751935700000000    0.3744052800000000 Co
   0.3744166000000000    0.8751975900000000    0.8751977500000000 Co
