Gd3 Y1 Fe13 Co1
1.0
   4.9611692156640093    0.0000000000000000   11.2788878566109414
   2.3709688530520134    4.3579485922708390   11.2788878071298075
   0.0000000000000000    0.0000000000000000   12.3217902600000002
Gd Y Fe Co
3 1 13 1
direct
   0.1496850000000000    0.1496850000000000    0.1496850000000000 Gd
   0.0523910000000000    0.0523910000000000    0.0523910000000000 Gd
   0.8502970000000000    0.8502970000000000    0.8502970000000000 Gd
   0.9476140000000000    0.9476140000000000    0.9476140000000000 Y
   0.6123270000000000    0.6123270000000000    0.6123270000000000 Fe
   0.3876630000000000    0.3876630000000000    0.3876630000000000 Fe
   0.1077450000000000    0.6099980000000000    0.6099980000000000 Fe
   0.3898700000000000    0.3898700000000000    0.8919120000000000 Fe
   0.6099980000000000    0.6099980000000000    0.1077450000000000 Fe
   0.6099980000000000    0.1077450000000000    0.6099980000000000 Fe
   0.3898700000000000    0.8919120000000000    0.3898700000000000 Fe
   0.5002920000000000    0.0000840000000000    0.5002920000000000 Fe
   0.7210520000000000    0.7210520000000000    0.7210520000000000 Fe
   0.8919120000000000    0.3898700000000000    0.3898700000000000 Fe
   0.0000840000000000    0.5002920000000000    0.5002920000000000 Fe
   0.2789240000000000    0.2789240000000000    0.2789240000000000 Fe
   0.5002920000000000    0.5002920000000000    0.0000840000000000 Fe
   0.4999870000000000    0.4999870000000000    0.4999870000000000 Co
