Gd3 Y3 Fe18
1.0
   5.0863090000000000    0.0000000000000000    0.0000000000000003
  -2.5431540010291780    4.4048730012022874    0.0000000000000003
   0.0000000000000000    0.0000000000000000   16.0958809999999986
Gd Y Fe
3 3 18
direct
   0.3333333333333333    0.6666666666666666    0.9632290000000000 Gd
   0.6666666666666666    0.3333333333333333    0.0366560000000000 Gd
   0.6666666666666666    0.3333333333333333    0.4626660000000000 Gd
   0.3333333333333333    0.6666666666666666    0.5366980000000000 Y
   0.3333333333333333    0.6666666666666666    0.7509260000000000 Y
   0.6666666666666666    0.3333333333333333    0.2496920000000000 Y
   0.1669590000000000    0.8330410000000000    0.3728640000000000 Fe
   0.1669590000000000    0.3339180000000000    0.3728640000000000 Fe
   0.6660820000000000    0.8330410000000000    0.3728640000000000 Fe
   0.8326190000000000    0.1673810000000000    0.6273240000000000 Fe
   0.8326190000000000    0.6652370000000000    0.6273240000000000 Fe
   0.3347630000000000    0.1673810000000000    0.6273240000000000 Fe
   0.8325530000000000    0.1674470000000000    0.8736260000000000 Fe
   0.8325530000000000    0.6651049999999999    0.8736260000000000 Fe
   0.3348950000000000    0.1674470000000000    0.8736260000000000 Fe
   0.1673470000000000    0.8326530000000000    0.1263420000000000 Fe
   0.1673470000000000    0.3346940000000000    0.1263420000000000 Fe
   0.6653060000000000    0.8326530000000000    0.1263420000000000 Fe
   0.3333333333333333    0.6666666666666666    0.2497770000000000 Fe
   0.6666666666666666    0.3333333333333333    0.7503370000000000 Fe
   0.0000000000000000    0.0000000000000000    0.2495180000000000 Fe
   0.0000000000000000    0.0000000000000000    0.7504459999999999 Fe
   0.0000000000000000    0.0000000000000000    0.4997350000000000 Fe
   0.0000000000000000    0.0000000000000000    0.9998530000000000 Fe
