Gd6 Fe8 Co4
1.0
   5.0973165427556886    0.0000000000000000    0.0318792223338147
  -2.5765474365431467    4.4545073956841472   -0.0104107849933031
   0.0000000000000000    0.0000000000000000   12.5040535100000003
Gd Fe Co
6 8 4
direct
   0.3320460000000000    0.6651730000000000    0.9176430000000000 Gd
   0.0034180000000000    0.0016970000000000    0.2487570000000000 Gd
   0.6668480000000000    0.3325780000000000    0.5829970000000000 Gd
   0.3331520000000000    0.6674220000000000    0.6670030000000000 Gd
   0.9965820000000000    0.9983030000000001    0.0012430000000000 Gd
   0.6679540000000000    0.3348270000000000    0.3323570000000000 Gd
   0.1677270000000000    0.3346210000000000    0.4572790000000000 Fe
   0.8322730000000000    0.6653790000000001    0.7927210000000000 Fe
   0.3355710000000000    0.6677520000000000    0.2908000000000000 Fe
   0.0000000000000000    0.0000000000000000    0.6250000000000000 Fe
   0.6644290000000000    0.3322480000000000    0.9592000000000001 Fe
   0.0000000000000000    0.5000000000000000    0.1250000000000000 Fe
   0.6678210000000000    0.8342349999999999    0.4573950000000000 Fe
   0.3321790000000000    0.1657650000000000    0.7926050000000000 Fe
   0.5000000000000000    0.5000000000000000    0.1250000000000000 Co
   0.1672150000000000    0.8342370000000000    0.4577500000000000 Co
   0.8327850000000000    0.1657630000000000    0.7922500000000000 Co
   0.5000000000000000    0.0000000000000000    0.1250000000000000 Co
