Gd4 Lu2 Fe14 B4
1.0
   5.1081629957440313    0.0000000000000000    0.0003816328473834
  -2.5537900068049719    4.4240330092260454    0.0000256321366002
   0.0000000000000000    0.0000000000000000   14.4693390100000006
Gd Lu Fe B
4 2 14 4
direct
   0.3333710000000000    0.6666666666666666    0.5346480000000000 Gd
   0.6666666666666666    0.3333333333333333    0.4653520000000000 Gd
   0.6668160000000000    0.3333333333333333    0.2484870000000000 Gd
   0.3331840000000000    0.6666666666666666    0.7515130000000000 Gd
   0.6667790000000000    0.3333333333333333    0.0334610000000000 Lu
   0.3332210000000000    0.6666666666666666    0.9665390000000000 Lu
   0.8349540000000000    0.6696600000000000    0.6480540000000000 Fe
   0.8344640000000000    0.1647520000000000    0.6479750000000000 Fe
   0.3304830000000000    0.1656510000000000    0.6480870000000000 Fe
   0.1650460000000000    0.3303400000000000    0.3519460000000000 Fe
   0.1655360000000000    0.8352480000000000    0.3520250000000000 Fe
   0.6695170000000000    0.8343490000000000    0.3519130000000000 Fe
   0.1666070000000000    0.3324770000000000    0.1439230000000000 Fe
   0.1662360000000000    0.8333910000000000    0.1440370000000000 Fe
   0.6676490000000000    0.8339330000000000    0.1439060000000000 Fe
   0.8333930000000001    0.6675230000000000    0.8560770000000000 Fe
   0.8337639999999999    0.1666090000000000    0.8559630000000000 Fe
   0.3323510000000000    0.1660670000000000    0.8560940000000000 Fe
   0.0000000000000000    0.0000000000000000    0.5000000000000000 Fe
   0.0000000000000000    0.0000000000000000    0.0000000000000000 Fe
   0.6666666666666666    0.3334150000000000    0.7511920000000000 B
   0.3333333333333333    0.6665850000000000    0.2488080000000000 B
   0.9999310000000000    0.0000900000000000    0.7523420000000000 B
   0.0000690000000000    0.9999100000000000    0.2476580000000000 B
