Gd2 Zr1 Fe9
1.0
   4.8080096033722066    0.0000000000000000    1.4774897602803065
   2.1769909821247531    4.2869182934102099    1.4774900552535155
   0.0000000000000000    0.0000000000000000    8.5618015300000003
Gd Zr Fe
2 1 9
direct
   0.0004410000000000    0.0004410000000000    0.9986780000000000 Gd
   0.8579520000000000    0.8579520000000000    0.4261450000000000 Gd
   0.1420410000000000    0.1420410000000000    0.5738760000000001 Zr
   0.0828860000000000    0.5838790000000000    0.7493540000000000 Fe
   0.5838790000000000    0.5838790000000000    0.7493540000000000 Fe
   0.5838790000000000    0.0828860000000000    0.7493540000000000 Fe
   0.9173150000000000    0.4158070000000000    0.2510720000000000 Fe
   0.4158070000000000    0.4158070000000000    0.2510720000000000 Fe
   0.4158070000000000    0.9173150000000000    0.2510720000000000 Fe
   0.3326620000000000    0.3326620000000000    0.0020150000000000 Fe
   0.6675430000000000    0.6675430000000000    0.9973710000000000 Fe
   0.4997890000000000    0.4997890000000000    0.5006340000000000 Fe
