Gd1 Al2 Fe8 Mo2
1.0
   4.4531183440765627    0.0000000000000000   -1.7560291134297186
   2.2434380389361093    6.0693137646619393   -0.8352080903593297
   0.0000000000000000    0.0000000000000000    6.5243514999999999
Gd Al Fe Mo
1 2 8 2
direct
   0.0000000000000000    0.0000000000000000    0.0000000000000000 Gd
   0.7096560000000000    0.7903440000000000    0.2096560000000000 Al
   0.2903440000000000    0.2096560000000000    0.7903440000000000 Al
   0.5000000000000000    0.7747090000000000    0.7747090000000000 Fe
   0.5000000000000000    0.2252910000000000    0.2252910000000000 Fe
   0.5000000000000000    0.0000000000000000    0.5000000000000000 Fe
   0.0000000000000000    0.0000000000000000    0.5000000000000000 Fe
   0.5000000000000000    0.5000000000000000    0.0000000000000000 Fe
   0.0000000000000000    0.5000000000000000    0.0000000000000000 Fe
   0.6394850000000000    0.3605150000000000    0.6394850000000000 Fe
   0.3605150000000000    0.6394850000000000    0.3605150000000000 Fe
   0.0000000000000000    0.3549860000000000    0.3549860000000000 Mo
   0.0000000000000000    0.6450140000000000    0.6450140000000000 Mo
