Gd1 Sc1 Fe6 Si2 B2
1.0
   5.0677819999996920    0.0000000000000000    0.0000017681051385
  -2.5337015827606244    4.3897154928248918   -0.0000053793282773
   0.0000000000000000    0.0000000000000000    6.5984470000000002
Gd Sc Fe Si B
1 1 6 2 2
direct
   0.9999830000000000    0.0000000000000000    0.9999840000000000 Gd
   0.9999860000000000    0.0000020000000000    0.4999940000000000 Sc
   0.4999840000000000    0.0000000000000000    0.2848060000000000 Fe
   0.4999830000000000    0.5000000000000000    0.2848530000000000 Fe
   0.9999830000000000    0.5000000000000000    0.2848550000000000 Fe
   0.4999830000000000    0.0000000000000000    0.7151910000000000 Fe
   0.4999830000000000    0.5000000000000000    0.7151540000000000 Fe
   0.9999830000000000    0.5000000000000000    0.7151570000000000 Fe
   0.3332950000000000    0.6666666666666666    0.9999650000000000 Si
   0.6666666666666666    0.3333670000000000    0.9999650000000000 Si
   0.3333333333333333    0.6666666666666666    0.5000370000000000 B
   0.6666666666666666    0.3333333333333333    0.5000370000000000 B
