Gd8 Fe56 B4
1.0
   8.7336815800000007    0.0000000000000000    0.0000000000000005
  -0.0000000000000005    8.7336815800000007    0.0000000000000005
   0.0000000000000000    0.0000000000000000   11.9566757399999997
Gd Fe B
8 56 4
direct
   0.2354829200000000    0.7645170800000000    0.5000000000000000 Gd
   0.7645170800000000    0.2354829200000000    0.5000000000000000 Gd
   0.2645170800000000    0.2645170800000000    0.0000000000000000 Gd
   0.7354829200000000    0.7354829200000000    0.0000000000000000 Gd
   0.6431666000000000    0.6431666000000000    0.5000000000000000 Gd
   0.3568334000000000    0.3568334000000000    0.5000000000000000 Gd
   0.8568334000000000    0.1431666000000000    0.0000000000000000 Gd
   0.1431666000000000    0.8568334000000000    0.0000000000000000 Gd
   0.0000000000000000    0.5000000000000000    0.5000000000000000 Fe
   0.5000000000000000    0.0000000000000000    0.0000000000000000 Fe
   0.5000000000000000    0.0000000000000000    0.5000000000000000 Fe
   0.0000000000000000    0.5000000000000000    0.0000000000000000 Fe
   0.5000000000000000    0.5000000000000000    0.1148359200000000 Fe
   0.0000000000000000    0.0000000000000000    0.6148359200000000 Fe
   0.5000000000000000    0.5000000000000000    0.8851640800000000 Fe
   0.0000000000000000    0.0000000000000000    0.3851640800000000 Fe
   0.1835977700000000    0.8164022300000000    0.2539006500000000 Fe
   0.8164022300000000    0.1835977700000000    0.2539006500000000 Fe
   0.3164022300000000    0.3164022300000000    0.7539006499999999 Fe
   0.6835977700000000    0.6835977700000000    0.7539006499999999 Fe
   0.8164022300000000    0.1835977700000000    0.7460993500000001 Fe
   0.1835977700000000    0.8164022300000000    0.7460993500000001 Fe
   0.6835977700000000    0.6835977700000000    0.2460993500000000 Fe
   0.3164022300000000    0.3164022300000000    0.2460993500000000 Fe
   0.4026890000000000    0.5973110000000000    0.2982351800000000 Fe
   0.5973110000000000    0.4026890000000000    0.2982351800000000 Fe
   0.0973110000000000    0.0973110000000000    0.7982351800000000 Fe
   0.9026890000000000    0.9026890000000000    0.7982351800000000 Fe
   0.5973110000000000    0.4026890000000000    0.7017648200000000 Fe
   0.4026890000000000    0.5973110000000000    0.7017648200000000 Fe
   0.9026890000000000    0.9026890000000000    0.2017648200000000 Fe
   0.0973110000000000    0.0973110000000000    0.2017648200000000 Fe
   0.1412936300000000    0.5361877000000000    0.3247527200000000 Fe
   0.8587063700000001    0.4638123000000000    0.3247527200000000 Fe
   0.3587063700000000    0.0361877000000000    0.8247527200000000 Fe
   0.6412936299999999    0.9638123000000000    0.8247527200000000 Fe
   0.8587063700000001    0.4638123000000000    0.6752472800000000 Fe
   0.1412936300000000    0.5361877000000000    0.6752472800000000 Fe
   0.6412936299999999    0.9638123000000000    0.1752472800000000 Fe
   0.3587063700000000    0.0361877000000000    0.1752472800000000 Fe
   0.5361877000000000    0.1412936300000000    0.3247527200000000 Fe
   0.4638123000000000    0.8587063700000001    0.3247527200000000 Fe
   0.0361877000000000    0.3587063700000000    0.8247527200000000 Fe
   0.9638123000000000    0.6412936299999999    0.8247527200000000 Fe
   0.4638123000000000    0.8587063700000001    0.6752472800000000 Fe
   0.5361877000000000    0.1412936300000000    0.6752472800000000 Fe
   0.9638123000000000    0.6412936299999999    0.1752472800000000 Fe
   0.0361877000000000    0.3587063700000000    0.1752472800000000 Fe
   0.9344988300000000    0.7253165700000000    0.3736166100000000 Fe
   0.0655011700000000    0.2746834300000000    0.3736166100000000 Fe
   0.5655011700000000    0.2253165700000000    0.8736166100000000 Fe
   0.4344988300000000    0.7746834300000000    0.8736166100000000 Fe
   0.0655011700000000    0.2746834300000000    0.6263833900000000 Fe
   0.9344988300000000    0.7253165700000000    0.6263833900000000 Fe
   0.4344988300000000    0.7746834300000000    0.1263833900000000 Fe
   0.5655011700000000    0.2253165700000000    0.1263833900000000 Fe
   0.7253165700000000    0.9344988300000000    0.3736166100000000 Fe
   0.2746834300000000    0.0655011700000000    0.3736166100000000 Fe
   0.2253165700000000    0.5655011700000000    0.8736166100000000 Fe
   0.7746834300000000    0.4344988300000000    0.8736166100000000 Fe
   0.2746834300000000    0.0655011700000000    0.6263833900000000 Fe
   0.7253165700000000    0.9344988300000000    0.6263833900000000 Fe
   0.7746834300000000    0.4344988300000000    0.1263833900000000 Fe
   0.2253165700000000    0.5655011700000000    0.1263833900000000 Fe
   0.8745830600000000    0.8745830600000000    0.5000000000000000 B
   0.1254169400000000    0.1254169400000000    0.5000000000000000 B
   0.6254169400000000    0.3745830600000000    0.0000000000000000 B
   0.3745830600000000    0.6254169400000000    0.0000000000000000 B
