Gd1 Y1 Fe6 Si2 B2
1.0
   5.1293850000000001    0.0000000000000000    0.0000000000000003
  -2.5646919979019800    4.4446359967244584    0.0000000000000003
   0.0000000000000000    0.0000000000000000    6.6359159999999999
Gd Y Fe Si B
1 1 6 2 2
direct
   0.9999840000000000    0.0000000000000000    0.5000000000000000 Gd
   0.9999820000000000    0.0000000000000000    0.0000000000000000 Y
   0.4999830000000000    0.0000000000000000    0.2834530000000000 Fe
   0.4999830000000000    0.4999990000000000    0.2834370000000000 Fe
   0.9999840000000000    0.5000010000000000    0.2834370000000000 Fe
   0.4999830000000000    0.0000000000000000    0.7165470000000000 Fe
   0.4999830000000000    0.4999990000000000    0.7165629999999999 Fe
   0.9999840000000000    0.5000010000000000    0.7165629999999999 Fe
   0.3332260000000000    0.6664860000000000    0.0000000000000000 Si
   0.6667390000000000    0.3335140000000000    0.0000000000000000 Si
   0.3332740000000000    0.6665780000000000    0.5000000000000000 B
   0.6666666666666666    0.3334220000000000    0.5000000000000000 B
