Gd4 Mn2 Fe18 P12
1.0
   3.6523040000000000    0.0000000000000000    0.0000000000000002
  -0.0000000000000006   10.2358759999999993    0.0000000000000006
   0.0000000000000000    0.0000000000000000   11.8017660000000006
Gd Mn Fe P
4 2 18 12
direct
   0.2500000000000000    0.5814710000000000    0.7040790000000000 Gd
   0.2500000000000000    0.9185290000000000    0.2040790000000000 Gd
   0.7500000000000000    0.4225340000000000    0.2954560000000000 Gd
   0.7500000000000000    0.0774660000000000    0.7954560000000001 Gd
   0.2500000000000000    0.7020290000000000    0.9900910000000001 Mn
   0.2500000000000000    0.7979710000000000    0.4900910000000000 Mn
   0.7500000000000000    0.2912830000000000    0.0110780000000000 Fe
   0.7500000000000000    0.2087170000000000    0.5110780000000000 Fe
   0.2500000000000000    0.4067230000000000    0.4891690000000000 Fe
   0.2500000000000000    0.0932770000000000    0.9891690000000000 Fe
   0.7500000000000000    0.5979750000000000    0.5121910000000000 Fe
   0.7500000000000000    0.9020250000000000    0.0121910000000000 Fe
   0.2500000000000000    0.2193320000000000    0.1756050000000000 Fe
   0.2500000000000000    0.2806680000000000    0.6756050000000000 Fe
   0.7500000000000000    0.7786940000000000    0.8285760000000000 Fe
   0.7500000000000000    0.7213060000000000    0.3285760000000000 Fe
   0.2500000000000000    0.8777790000000000    0.7001990000000000 Fe
   0.2500000000000000    0.6222210000000000    0.2001990000000000 Fe
   0.7500000000000000    0.1272450000000000    0.2976810000000000 Fe
   0.7500000000000000    0.3727550000000000    0.7976810000000000 Fe
   0.2500000000000000    0.4608100000000000    0.9313590000000000 Fe
   0.2500000000000000    0.0391900000000000    0.4313590000000000 Fe
   0.7500000000000000    0.5343840000000000    0.0648110000000000 Fe
   0.7500000000000000    0.9656160000000000    0.5648110000000000 Fe
   0.2500000000000000    0.4234220000000000    0.1133080000000000 P
   0.2500000000000000    0.0765780000000000    0.6133080000000000 P
   0.7500000000000000    0.5755169999999999    0.8839620000000000 P
   0.7500000000000000    0.9244830000000001    0.3839620000000000 P
   0.2500000000000000    0.2618760000000000    0.8708210000000000 P
   0.2500000000000000    0.2381240000000000    0.3708210000000000 P
   0.7500000000000000    0.7310510000000000    0.1372560000000000 P
   0.7500000000000000    0.7689490000000000    0.6372560000000000 P
   0.2500000000000000    0.6000040000000000    0.3915220000000000 P
   0.2500000000000000    0.8999960000000000    0.8915220000000000 P
   0.7500000000000000    0.4011970000000000    0.6028340000000000 P
   0.7500000000000000    0.0988030000000000    0.1028340000000000 P
