Gd1 Y3 Fe20 P12
1.0
   3.6560250000000001    0.0000000000000000    0.0000000000000002
  -0.0000000000000006   10.3167089887544421   -0.0026535000163386
   0.0000000000000000    0.0000000000000000   11.8389410000000002
Gd Y Fe P
1 3 20 12
direct
   0.2500000000000000    0.9194310000000000    0.2042740000000000 Gd
   0.7500000000000000    0.0806250000000000    0.7953770000000000 Y
   0.7500000000000000    0.4194530000000000    0.2955550000000000 Y
   0.2500000000000000    0.5805399999999999    0.7045100000000000 Y
   0.2500000000000000    0.7917250000000000    0.4890080000000000 Fe
   0.7500000000000000    0.2080070000000000    0.5109730000000000 Fe
   0.7500000000000000    0.2916550000000000    0.0111710000000000 Fe
   0.2500000000000000    0.7084770000000000    0.9892960000000000 Fe
   0.2500000000000000    0.0946340000000000    0.9907670000000000 Fe
   0.7500000000000000    0.9053830000000000    0.0099740000000000 Fe
   0.7500000000000000    0.5947550000000000    0.5094370000000000 Fe
   0.2500000000000000    0.4052630000000000    0.4906470000000000 Fe
   0.2500000000000000    0.2804840000000000    0.6764289999999999 Fe
   0.7500000000000000    0.7197519999999999    0.3233820000000000 Fe
   0.7500000000000000    0.7806270000000000    0.8235610000000000 Fe
   0.2500000000000000    0.2191820000000000    0.1765510000000000 Fe
   0.2500000000000000    0.6253440000000000    0.2014970000000000 Fe
   0.7500000000000000    0.3750780000000000    0.7986110000000000 Fe
   0.7500000000000000    0.1241050000000000    0.2982730000000000 Fe
   0.2500000000000000    0.8755610000000000    0.7013800000000000 Fe
   0.2500000000000000    0.0364430000000000    0.4320890000000000 Fe
   0.7500000000000000    0.9629740000000000    0.5670760000000000 Fe
   0.7500000000000000    0.5372350000000000    0.0676660000000000 Fe
   0.2500000000000000    0.4632430000000000    0.9324900000000000 Fe
   0.2500000000000000    0.0776430000000000    0.6119160000000000 P
   0.7500000000000000    0.9222530000000000    0.3870580000000000 P
   0.7500000000000000    0.5777139999999999    0.8879450000000000 P
   0.2500000000000000    0.4224410000000000    0.1121420000000000 P
   0.2500000000000000    0.2335120000000000    0.3721010000000000 P
   0.7500000000000000    0.7664339999999999    0.6279840000000000 P
   0.7500000000000000    0.7343040000000000    0.1282500000000000 P
   0.2500000000000000    0.2663360000000000    0.8721380000000000 P
   0.2500000000000000    0.8986820000000000    0.8969060000000000 P
   0.7500000000000000    0.1007550000000000    0.1034590000000000 P
   0.7500000000000000    0.3986250000000000    0.6031960000000000 P
   0.2500000000000000    0.6013230000000001    0.3969100000000000 P
