Gd4 Fe4 Co10
1.0
   4.9685860977980099    0.0000000000000000    1.0617454152048273
   2.3708509412632424    4.3664532381842642    1.0617455340512423
   0.0000000000000000    0.0000000000000000   12.1564722300000003
Gd Fe Co
4 4 10
direct
   0.0512140000000000    0.0512140000000000    0.8463570000000000 Gd
   0.9487860000000000    0.9487860000000000    0.1536430000000000 Gd
   0.1484940000000000    0.1484940000000000    0.5545190000000000 Gd
   0.8515060000000000    0.8515060000000000    0.4454810000000000 Gd
   0.2786220000000000    0.2786220000000000    0.1641340000000000 Fe
   0.7213780000000000    0.7213780000000000    0.8358660000000000 Fe
   0.3880690000000000    0.3880690000000000    0.8357940000000000 Fe
   0.6119310000000000    0.6119310000000000    0.1642060000000000 Fe
   0.5000000000000000    0.5000000000000000    0.5000000000000000 Co
   0.5000000000000000    0.5000000000000000    0.0000000000000000 Co
   0.5000000000000000    0.0000000000000000    0.0000000000000000 Co
   0.0000000000000000    0.5000000000000000    0.0000000000000000 Co
   0.1095770000000000    0.6093720000000000    0.6716790000000000 Co
   0.6093720000000000    0.6093720000000000    0.6716790000000000 Co
   0.6093720000000000    0.1095770000000000    0.6716790000000000 Co
   0.8904230000000000    0.3906280000000000    0.3283210000000000 Co
   0.3906280000000000    0.3906280000000000    0.3283210000000000 Co
   0.3906280000000000    0.8904230000000000    0.3283210000000000 Co
