Gd1 Y1 Be3 Fe14 C3
1.0
   6.3051402062584909    0.0000000000000000    0.7153040653529266
   0.6387435332047129    6.2727016874924511    0.7153042849118860
   0.0000000000000000    0.0000000000000000    6.3455849000000004
Gd Y Be Fe C
1 1 3 14 3
direct
   0.6545620000000000    0.6545620000000000    0.6545620000000000 Gd
   0.3464620000000000    0.3464620000000000    0.3464620000000000 Y
   0.9999270000000000    0.9999270000000000    0.5002070000000000 Be
   0.5002070000000000    0.9999270000000000    0.9999270000000000 Be
   0.9999270000000000    0.5002070000000000    0.9999270000000000 Be
   0.7191350000000000    0.2813020000000000    0.9994650000000000 Fe
   0.9994650000000000    0.7191350000000000    0.2813020000000000 Fe
   0.2813020000000000    0.9994650000000000    0.7191350000000000 Fe
   0.9994650000000000    0.2813020000000000    0.7191350000000000 Fe
   0.7191350000000000    0.9994650000000000    0.2813020000000000 Fe
   0.2813020000000000    0.7191350000000000    0.9994650000000000 Fe
   0.3381330000000000    0.3381330000000000    0.8608640000000000 Fe
   0.8608640000000000    0.3381330000000000    0.3381330000000000 Fe
   0.3381330000000000    0.8608640000000000    0.3381330000000000 Fe
   0.6625140000000000    0.6625140000000000    0.1378990000000000 Fe
   0.1378990000000000    0.6625140000000000    0.6625140000000000 Fe
   0.6625140000000000    0.1378990000000000    0.6625140000000000 Fe
   0.9014880000000000    0.9014880000000000    0.9014880000000000 Fe
   0.0977510000000000    0.0977510000000000    0.0977510000000000 Fe
   0.5011290000000000    0.5011290000000000    0.9975570000000000 C
   0.9975570000000000    0.5011290000000000    0.5011290000000000 C
   0.5011290000000000    0.9975570000000000    0.5011290000000000 C
