Gd1 Zr2 Fe8 Co1
1.0
   4.7720740962788808    0.0000000000000000    7.0568301578264583
   2.1620651706051897    4.2541951552918249    7.0568300636384240
   0.0000000000000000    0.0000000000000000    8.5188928799999992
Gd Zr Fe Co
1 2 8 1
direct
   0.9999150000000000    0.9999150000000000    0.9999150000000000 Gd
   0.1427760000000000    0.1427760000000000    0.1427760000000000 Zr
   0.8572090000000000    0.8572090000000000    0.8572090000000000 Zr
   0.4997380000000000    0.4997380000000000    0.4997380000000000 Fe
   0.6671190000000000    0.6671190000000000    0.6671190000000000 Fe
   0.0814930000000000    0.5854930000000000    0.5854930000000000 Fe
   0.5854930000000000    0.5854930000000000    0.0814930000000000 Fe
   0.5854930000000000    0.0814930000000000    0.5854930000000000 Fe
   0.4149510000000000    0.9178410000000000    0.4149510000000000 Fe
   0.9178410000000000    0.4149510000000000    0.4149510000000000 Fe
   0.4149510000000000    0.4149510000000000    0.9178410000000000 Fe
   0.3330220000000000    0.3330220000000000    0.3330220000000000 Co
