Gd2 Zr1 Sc3 Fe18
1.0
   4.9245941008086156    0.0000000000000000   -0.7707814012900004
   2.4019779201217890    4.2990844886697346   -0.7707815910791552
   0.0000000000000000    0.0000000000000000   16.1172325000000001
Gd Zr Sc Fe
2 1 3 18
direct
   0.0003050000000000    0.0003050000000000    0.0009140000000000 Gd
   0.4993460000000000    0.4993460000000000    0.4980390000000000 Gd
   0.5717400000000000    0.5717400000000000    0.7152200000000000 Zr
   0.4281810000000000    0.4281810000000000    0.2845440000000000 Sc
   0.9290380000000000    0.9290380000000000    0.7871130000000000 Sc
   0.0716590000000000    0.0716590000000000    0.2149760000000000 Sc
   0.4558350000000000    0.9584230000000000    0.3726810000000000 Fe
   0.9565030000000000    0.4586580000000000    0.8738190000000000 Fe
   0.9584230000000000    0.9584230000000000    0.3726810000000000 Fe
   0.4586580000000000    0.4586580000000000    0.8738190000000000 Fe
   0.9584230000000000    0.4558350000000000    0.3726810000000000 Fe
   0.4586580000000000    0.9565030000000000    0.8738190000000000 Fe
   0.0441210000000000    0.5414180000000000    0.1269570000000000 Fe
   0.5437930000000000    0.0412250000000000    0.6262430000000000 Fe
   0.5414180000000000    0.5414180000000000    0.1269570000000000 Fe
   0.0412250000000000    0.0412250000000000    0.6262430000000000 Fe
   0.5414180000000000    0.0441210000000000    0.1269570000000000 Fe
   0.0412250000000000    0.5437930000000000    0.6262430000000000 Fe
   0.3337630000000000    0.3337630000000000    0.0012910000000000 Fe
   0.8335050000000001    0.8335050000000001    0.5005140000000000 Fe
   0.1661950000000000    0.1661950000000000    0.4985850000000000 Fe
   0.6665380000000000    0.6665380000000000    0.9996140000000000 Fe
   0.7499460000000000    0.7499460000000000    0.2498380000000000 Fe
   0.2500820000000000    0.2500820000000000    0.7502460000000000 Fe
