Gd1 Hf1 Ti1 Fe9
1.0
   4.7057523585089864    0.0000000000000000    6.9398551260208547
   2.1310193510631490    4.1955758555504703    6.9398551860296509
   0.0000000000000000    0.0000000000000000    8.3848491299999992
Gd Hf Ti Fe
1 1 1 9
direct
   0.0008590000000000    0.0008590000000000    0.0008590000000000 Gd
   0.8557030000000000    0.8557030000000000    0.8557030000000000 Hf
   0.1433490000000000    0.1433490000000000    0.1433490000000000 Ti
   0.4998810000000000    0.4998810000000000    0.4998810000000000 Fe
   0.3331700000000000    0.3331700000000000    0.3331700000000000 Fe
   0.6669570000000000    0.6669570000000000    0.6669570000000000 Fe
   0.0827640000000000    0.5868920000000000    0.5868920000000000 Fe
   0.5868920000000000    0.5868920000000000    0.0827640000000000 Fe
   0.5868920000000000    0.0827640000000000    0.5868920000000000 Fe
   0.4128010000000000    0.9179330000000000    0.4128010000000000 Fe
   0.9179330000000000    0.4128010000000000    0.4128010000000000 Fe
   0.4128010000000000    0.4128010000000000    0.9179330000000000 Fe
