Gd5 Y1 Fe16 Co2
1.0
   5.1194789999997408    0.0000000000000000   -0.0000016306697027
  -2.5597028155953025    4.4336115029442915    0.0000003154112730
   0.0000000000000000    0.0000000000000000   16.2262929999999983
Gd Y Fe Co
5 1 16 2
direct
   0.3333333333333333    0.6666666666666666    0.9630850000000000 Gd
   0.6666666666666666    0.3333333333333333    0.0367870000000000 Gd
   0.6666666666666666    0.3333333333333333    0.4631140000000000 Gd
   0.3333333333333333    0.6666666666666666    0.7499700000000000 Gd
   0.6666666666666666    0.3333333333333333    0.2500050000000000 Gd
   0.3333333333333333    0.6666666666666666    0.5370210000000000 Y
   0.1664290000000000    0.8335710000000000    0.3720710000000000 Fe
   0.1664290000000000    0.3328590000000000    0.3720710000000000 Fe
   0.6671410000000000    0.8335710000000000    0.3720710000000000 Fe
   0.8333170000000000    0.1666830000000000    0.6280260000000000 Fe
   0.8333170000000000    0.6666666666666666    0.6280260000000000 Fe
   0.3333333333333333    0.1666830000000000    0.6280260000000000 Fe
   0.8334279999999999    0.1665710000000000    0.8719900000000000 Fe
   0.8334279999999999    0.6668570000000000    0.8719900000000000 Fe
   0.3331430000000000    0.1665710000000000    0.8719900000000000 Fe
   0.1665950000000000    0.8334050000000000    0.1280310000000000 Fe
   0.1665950000000000    0.3331900000000000    0.1280310000000000 Fe
   0.6668100000000000    0.8334050000000000    0.1280310000000000 Fe
   0.3333333333333333    0.6666666666666666    0.2499200000000000 Fe
   0.6666666666666666    0.3333333333333333    0.7500880000000000 Fe
   0.0000000000000000    0.0000000000000000    0.2497660000000000 Fe
   0.9999980000000001    0.0000000000000000    0.7500160000000000 Fe
   0.0000010000000000    0.0000000000000000    0.4998890000000000 Co
   0.9999990000000000    0.0000000000000000    0.9999840000000000 Co
