Gd1 Sc1 Fe14 Si3 C3
1.0
   6.3622943897021909    0.0000000000000000    0.7664010521066109
   0.6796216923948319    6.3258920433249841    0.7664020608956046
   0.0000000000000000    0.0000000000000000    6.4082889099999996
Gd Sc Fe Si C
1 1 14 3 3
direct
   0.3477150000000000    0.3477150000000000    0.3477150000000000 Gd
   0.6553680000000000    0.6553680000000000    0.6553680000000000 Sc
   0.7163020000000000    0.2849260000000000    0.9986450000000000 Fe
   0.9986450000000000    0.7163020000000000    0.2849260000000000 Fe
   0.2849260000000000    0.9986450000000000    0.7163020000000000 Fe
   0.9986450000000000    0.2849260000000000    0.7163020000000000 Fe
   0.7163020000000000    0.9986450000000000    0.2849260000000000 Fe
   0.2849260000000000    0.7163020000000000    0.9986450000000000 Fe
   0.3423480000000000    0.8585420000000000    0.3423480000000000 Fe
   0.3423480000000000    0.3423480000000000    0.8585420000000000 Fe
   0.8585420000000000    0.3423480000000000    0.3423480000000000 Fe
   0.6592820000000000    0.1367080000000000    0.6592820000000000 Fe
   0.6592820000000000    0.6592820000000000    0.1367080000000000 Fe
   0.1367080000000000    0.6592820000000000    0.6592820000000000 Fe
   0.9012270000000000    0.9012270000000000    0.9012270000000000 Fe
   0.0971700000000000    0.0971700000000000    0.0971700000000000 Fe
   0.0013260000000000    0.0013260000000000    0.4995650000000000 Si
   0.4995650000000000    0.0013260000000000    0.0013260000000000 Si
   0.0013260000000000    0.4995650000000000    0.0013260000000000 Si
   0.5040270000000000    0.5040270000000000    0.9899920000000000 C
   0.9899920000000000    0.5040270000000000    0.5040270000000000 C
   0.5040270000000000    0.9899920000000000    0.5040270000000000 C
