Gd2 Mn1 Be3 Fe13 C3
1.0
   6.2733404970796061    0.0000000000000000    0.7339482302787057
   0.6545283542924574    6.2506845206547244    0.7329343907988609
   0.0000000000000000    0.0000000000000000    6.3274517100000001
Gd Mn Be Fe C
2 1 3 13 3
direct
   0.6551200000000000    0.6541960000000000    0.6556540000000000 Gd
   0.3448800000000000    0.3443460000000000    0.3458040000000000 Gd
   0.0000000000000000    0.7224060000000000    0.2775940000000000 Mn
   0.0006540000000000    0.0013570000000000    0.5008750000000000 Be
   0.5000000000000000    0.9985740000000000    0.0014260000000000 Be
   0.9993460000000000    0.4991250000000000    0.9986429999999999 Be
   0.7191330000000000    0.2793780000000000    0.0005900000000000 Fe
   0.2808670000000000    0.9994100000000000    0.7206220000000000 Fe
   0.0000000000000000    0.2817550000000000    0.7182450000000000 Fe
   0.7213650000000000    0.9981340000000000    0.2821460000000000 Fe
   0.2786350000000000    0.7178540000000000    0.0018660000000000 Fe
   0.3384600000000000    0.8606390000000000    0.3377960000000000 Fe
   0.3389290000000000    0.3376110000000000    0.8609230000000000 Fe
   0.8600300000000000    0.3381730000000000    0.3369610000000000 Fe
   0.6610710000000000    0.1390770000000000    0.6623890000000000 Fe
   0.6615400000000000    0.6622040000000000    0.1393610000000000 Fe
   0.1399700000000000    0.6630390000000000    0.6618270000000001 Fe
   0.9010330000000000    0.9023200000000000    0.9006090000000000 Fe
   0.0989670000000000    0.0993910000000000    0.0976800000000000 Fe
   0.4993230000000000    0.5001480000000000    0.0009160000000000 C
   0.0000000000000000    0.5017770000000000    0.4982230000000000 C
   0.5006770000000000    0.9990840000000000    0.4998520000000000 C
