Gd1 Lu1 Fe6 Ge4
1.0
   4.0199170000000004    0.0000000000000000    0.0000000000000002
  -2.0099590000120768    3.4813500006107998    0.0000000000000002
   0.0000000000000000    0.0000000000000000   13.2495270000000005
Gd Lu Fe Ge
1 1 6 4
direct
   0.0000000000000000    0.0000000000000000    0.7500000000000000 Gd
   0.0000000000000000    0.0000000000000000    0.2500000000000000 Lu
   0.0000000000000000    0.0000000000000000    0.0036300000000000 Fe
   0.6666666666666666    0.3333333333333333    0.0707720000000000 Fe
   0.6666666666666666    0.3333333333333333    0.4292280000000000 Fe
   0.0000000000000000    0.0000000000000000    0.4963700000000000 Fe
   0.3333333333333333    0.6666666666666666    0.5639090000000000 Fe
   0.3333333333333333    0.6666666666666666    0.9360920000000000 Fe
   0.3333333333333333    0.6666666666666666    0.1188220000000000 Ge
   0.3333333333333333    0.6666666666666666    0.3811780000000000 Ge
   0.6666666666666666    0.3333333333333333    0.6118580000000000 Ge
   0.6666666666666666    0.3333333333333333    0.8881430000000000 Ge
