Gd3 Al1 Fe12 B2
1.0
   5.0105659999999999    0.0000000000000000    0.0000000000000003
  -2.5052820022147366    4.4311220041159087    0.0000000000000003
   0.0000000000000000    0.0000000000000000   10.9739670000000000
Gd Al Fe B
3 1 12 2
direct
   0.0000000000000000    0.0000000000000000    0.0000000000000000 Gd
   0.0000000000000000    0.0000000000000000    0.3180040000000000 Gd
   0.0000000000000000    0.0000000000000000    0.6819960000000000 Gd
   0.5000000000000000    0.0000000000000000    0.5000000000000000 Al
   0.5000000000000000    0.5000000000000000    0.5000000000000000 Fe
   0.0000000000000000    0.5000000000000000    0.5000000000000000 Fe
   0.3263100000000000    0.6526200000000000    0.3173630000000000 Fe
   0.6736900000000000    0.3473800000000000    0.3173630000000000 Fe
   0.6736900000000000    0.3473800000000000    0.6826370000000000 Fe
   0.3263100000000000    0.6526200000000000    0.6826370000000000 Fe
   0.5000000000000000    0.0000000000000000    0.1361220000000000 Fe
   0.5000000000000000    0.5000000000000000    0.1370830000000000 Fe
   0.0000000000000000    0.5000000000000000    0.1370830000000000 Fe
   0.5000000000000000    0.0000000000000000    0.8638780000000000 Fe
   0.5000000000000000    0.5000000000000000    0.8629170000000000 Fe
   0.0000000000000000    0.5000000000000000    0.8629170000000000 Fe
   0.3337320000000000    0.6674650000000000    0.0000000000000000 B
   0.6662680000000000    0.3325350000000000    0.0000000000000000 B
