Gd6 Fe14 B4
1.0
   5.1118081991459823    0.0000000000000000   -0.0000934405662569
  -2.5384040306160123    4.4370157764677609    0.0000934539864167
   0.0000000000000000    0.0000000000000000   14.5306169999999995
Gd Fe B
6 14 4
direct
   0.6666666666666666    0.3333333333333333    0.4650690000000000 Gd
   0.3333770000000000    0.6666666666666666    0.7504320000000000 Gd
   0.6668910000000000    0.3331090000000000    0.0347280000000000 Gd
   0.3334450000000000    0.6665550000000000    0.9662320000000000 Gd
   0.3332290000000000    0.6667710000000000    0.5344520000000000 Gd
   0.6665430000000000    0.3334570000000000    0.2495430000000000 Gd
   0.8342270000000001    0.6686440000000000    0.6465490000000000 Fe
   0.8343490000000000    0.1656510000000000    0.6464760000000001 Fe
   0.3313560000000000    0.1657730000000000    0.6465490000000000 Fe
   0.1659840000000000    0.3321050000000000    0.3526350000000000 Fe
   0.1658640000000000    0.8341360000000000    0.3526870000000000 Fe
   0.6678950000000000    0.8340160000000000    0.3526350000000000 Fe
   0.1661760000000000    0.3322360000000000    0.1458760000000000 Fe
   0.1661120000000000    0.8338880000000000    0.1459360000000000 Fe
   0.6677640000000000    0.8338240000000000    0.1458760000000000 Fe
   0.8338250000000000    0.6674480000000000    0.8547970000000000 Fe
   0.8341060000000000    0.1658940000000000    0.8547370000000000 Fe
   0.3325520000000000    0.1661750000000000    0.8547970000000000 Fe
   0.9998290000000000    0.0001710000000000    0.4998590000000000 Fe
   0.9999950000000000    0.0000050000000000    0.0002350000000000 Fe
   0.6665700000000000    0.3334300000000000    0.7502020000000000 B
   0.3333830000000000    0.6666666666666666    0.2496110000000000 B
   0.0000550000000000    0.9999450000000000    0.7505970000000000 B
   0.9998330000000000    0.0001670000000000    0.2494910000000000 B
