Gd1 Sc1 Fe12 P7
1.0
   8.8891740000000006    0.0000000000000000    0.0000000000000005
  -4.4445870000242795    7.6982509991673442    0.0000000000000005
   0.0000000000000000    0.0000000000000000    3.6212659999999999
Gd Sc Fe P
1 1 12 7
direct
   0.0000000000000000    0.0000000000000000    0.5000000000000000 Gd
   0.3333333333333333    0.6666666666666666    0.0000000000000000 Sc
   0.7201180000000000    0.7595790000000000    0.0000000000000000 Fe
   0.2404210000000000    0.9605390000000000    0.0000000000000000 Fe
   0.0394610000000000    0.2798820000000000    0.0000000000000000 Fe
   0.9411880000000000    0.4875350000000000    0.0000000000000000 Fe
   0.5124649999999999    0.4536530000000000    0.0000000000000000 Fe
   0.5463470000000000    0.0588120000000000    0.0000000000000000 Fe
   0.1012430000000000    0.7152930000000000    0.5000000000000000 Fe
   0.2847070000000000    0.3859500000000000    0.5000000000000000 Fe
   0.6140500000000000    0.8987570000000000    0.5000000000000000 Fe
   0.7619890000000000    0.5475040000000000    0.5000000000000000 Fe
   0.4524960000000000    0.2144860000000000    0.5000000000000000 Fe
   0.7855140000000000    0.2380110000000000    0.5000000000000000 Fe
   0.9623790000000000    0.7423710000000000    0.0000000000000000 P
   0.2576290000000000    0.2200080000000000    0.0000000000000000 P
   0.7799920000000000    0.0376210000000000    0.0000000000000000 P
   0.0726120000000000    0.4488420000000000    0.5000000000000000 P
   0.5511580000000000    0.6237690000000000    0.5000000000000000 P
   0.3762310000000000    0.9273880000000000    0.5000000000000000 P
   0.6666666666666666    0.3333333333333333    0.0000000000000000 P
