Gd1 Y2 Fe8 Os1
1.0
   4.8890741127085295    0.0000000000000000    1.4981831570149788
   2.2149883287984684    4.3585413615457762    1.4981830251701231
   0.0000000000000000    0.0000000000000000    8.7264393200000008
Gd Y Fe Os
1 2 8 1
direct
   0.1417990000000000    0.1417990000000000    0.5746019999999999 Gd
   0.8579639999999999    0.8579639999999999    0.4261070000000000 Y
   0.0002290000000000    0.0002290000000000    0.9993120000000000 Y
   0.0780760000000000    0.5817860000000000    0.7583510000000000 Fe
   0.5817860000000000    0.5817860000000000    0.7583510000000000 Fe
   0.5817860000000000    0.0780760000000000    0.7583510000000000 Fe
   0.9222290000000000    0.4181570000000000    0.2414590000000000 Fe
   0.4181570000000000    0.4181570000000000    0.2414590000000000 Fe
   0.4181570000000000    0.9222290000000000    0.2414590000000000 Fe
   0.3329960000000000    0.3329960000000000    0.0010120000000000 Fe
   0.6670060000000000    0.6670060000000000    0.9989840000000000 Fe
   0.4998150000000000    0.4998150000000000    0.5005540000000001 Os
