Gd4 Fe8 Co6
1.0
   4.9271997891280810    0.0000000000000000    1.0413660359969836
   2.3365774023160570    4.3635066897740185    1.0445551896779681
   0.0000000000000000    0.0000000000000000   12.3085700100000004
Gd Fe Co
4 8 6
direct
   0.9473860000000000    0.9480950000000000    0.1562710000000000 Gd
   0.0525590000000000    0.0517640000000000    0.8439240000000000 Gd
   0.8518390000000000    0.8511260000000000    0.4473430000000000 Gd
   0.1479490000000000    0.1482020000000000    0.5561290000000000 Gd
   0.5008629999999999    0.5008660000000000    0.5013670000000000 Fe
   0.7240780000000000    0.7212550000000000    0.8328430000000000 Fe
   0.2760780000000000    0.2795300000000000    0.1651630000000000 Fe
   0.6124710000000000    0.6111920000000000    0.1656520000000000 Fe
   0.3893350000000000    0.3896270000000000    0.8315730000000000 Fe
   0.5001530000000000    0.0004240000000000    0.9994800000000000 Fe
   0.4997950000000000    0.5000150000000000    0.9997940000000000 Fe
   0.3879110000000000    0.3874860000000000    0.3302440000000000 Fe
   0.0003230000000000    0.5002820000000000    0.9992670000000000 Co
   0.8905710000000000    0.3887010000000000    0.3310340000000000 Co
   0.3894430000000000    0.8903090000000000    0.3303790000000000 Co
   0.6111650000000000    0.6110780000000000    0.6697650000000001 Co
   0.1075910000000000    0.6116120000000000    0.6693340000000000 Co
   0.6104889999999999    0.1084360000000000    0.6704390000000000 Co
