Gd1 Zr3 Fe8
1.0
   4.8024947929324542    0.0000000000000000    7.2640963444158517
   2.1841565778554477    4.2770809486786101    7.2640963966945158
   0.0000000000000000    0.0000000000000000    8.7081022899999994
Gd Zr Fe
1 3 8
direct
   0.1250660000000000    0.1250660000000000    0.1250660000000000 Gd
   0.6248720000000000    0.6248720000000000    0.6248720000000000 Zr
   0.9996010000000000    0.9996010000000000    0.9996010000000000 Zr
   0.5006340000000000    0.5006340000000000    0.5006340000000000 Zr
   0.5617220000000001    0.0607650000000000    0.5617220000000001 Fe
   0.0631680000000000    0.5642650000000000    0.0631680000000000 Fe
   0.0607650000000000    0.5617220000000001    0.5617220000000001 Fe
   0.5642650000000000    0.0631680000000000    0.0631680000000000 Fe
   0.8125440000000000    0.8125440000000000    0.8125440000000000 Fe
   0.3124720000000000    0.3124720000000000    0.3124720000000000 Fe
   0.5617220000000001    0.5617220000000001    0.0607650000000000 Fe
   0.0631680000000000    0.0631680000000000    0.5642650000000000 Fe
