Gd4 Fe5 Co9
1.0
   4.9433096116596271    0.0000000000000000    1.0567967247677503
   2.3586911074852184    4.3442929056017325    1.0567967097338329
   0.0000000000000000    0.0000000000000000   12.0898930399999998
Gd Fe Co
4 5 9
direct
   0.9494870000000000    0.9494870000000000    0.1515390000000000 Gd
   0.0505130000000000    0.0505130000000000    0.8484610000000000 Gd
   0.8517910000000000    0.8517910000000000    0.4446250000000000 Gd
   0.1482090000000000    0.1482090000000000    0.5553750000000000 Gd
   0.5000000000000000    0.5000000000000000    0.5000000000000000 Fe
   0.7216250000000000    0.7216250000000000    0.8351270000000000 Fe
   0.2783750000000000    0.2783750000000000    0.1648730000000000 Fe
   0.6112840000000000    0.6112840000000000    0.1661450000000000 Fe
   0.3887160000000000    0.3887160000000000    0.8338550000000000 Fe
   0.0000000000000000    0.5000000000000000    0.0000000000000000 Co
   0.5000000000000000    0.0000000000000000    0.0000000000000000 Co
   0.5000000000000000    0.5000000000000000    0.0000000000000000 Co
   0.3885930000000000    0.3885930000000000    0.3302840000000000 Co
   0.8925290000000000    0.3885930000000000    0.3302840000000000 Co
   0.3885930000000000    0.8925290000000000    0.3302840000000000 Co
   0.6114070000000000    0.6114070000000000    0.6697160000000000 Co
   0.1074710000000000    0.6114070000000000    0.6697160000000000 Co
   0.6114070000000000    0.1074710000000000    0.6697160000000000 Co
