Gd2 Fe3 Ru1
1.0
   4.4473672450488877    0.0000000000000000    2.6777805647553525
   1.5134005086666305    4.1819486344046677    2.6777802224682588
   0.0000000000000000    0.0000000000000000    5.1912995200000003
Gd Fe Ru
2 3 1
direct
   0.1244010000000000    0.1244010000000000    0.1244010000000000 Gd
   0.8755990000000000    0.8755990000000000    0.8755990000000000 Gd
   0.5000000000000000    0.0000000000000000    0.5000000000000000 Fe
   0.0000000000000000    0.5000000000000000    0.5000000000000000 Fe
   0.5000000000000000    0.5000000000000000    0.0000000000000000 Fe
   0.5000000000000000    0.5000000000000000    0.5000000000000000 Ru
