Gd2 Lu1 Fe9
1.0
   4.8482200982495769    0.0000000000000000    7.0494797521686952
   2.1901293732755169    4.3253404355425031    7.0494797176040409
   0.0000000000000000    0.0000000000000000    8.5557247699999994
Gd Lu Fe
2 1 9
direct
   0.9999330000000000    0.9999330000000000    0.9999330000000000 Gd
   0.1422580000000000    0.1422580000000000    0.1422580000000000 Gd
   0.8578190000000000    0.8578190000000000    0.8578190000000000 Lu
   0.5000150000000000    0.5000150000000000    0.5000150000000000 Fe
   0.3326740000000000    0.3326740000000000    0.3326740000000000 Fe
   0.6673720000000000    0.6673720000000000    0.6673720000000000 Fe
   0.0825590000000000    0.5829130000000000    0.5829130000000000 Fe
   0.5829130000000000    0.5829130000000000    0.0825590000000000 Fe
   0.5829130000000000    0.0825590000000000    0.5829130000000000 Fe
   0.4171330000000000    0.9172800000000000    0.4171330000000000 Fe
   0.9172800000000000    0.4171330000000000    0.4171330000000000 Fe
   0.4171330000000000    0.4171330000000000    0.9172800000000000 Fe
