Gd4 Co6
1.0
   5.3850440184971111    0.0000000000000000    0.0001272251621135
  -2.7244717944532133    4.6449922911027999   -0.0001255756965432
   0.0000000000000000    0.0000000000000000    6.9844540000000004
Gd Co
4 6
direct
   0.1629030000000000    0.8370960000000000    0.0976700000000000 Gd
   0.6629090000000000    0.3370900000000000    0.4023020000000000 Gd
   0.3370960000000000    0.6629030000000000    0.5977040000000000 Gd
   0.8371040000000000    0.1628950000000000    0.9023250000000000 Gd
   0.4999980000000000    0.5000019999999999    0.9999900000000000 Co
   0.1640740000000000    0.3359010000000000    0.2499800000000000 Co
   0.6641000000000000    0.8359270000000000    0.2499800000000000 Co
   0.9999940000000000    0.0000060000000000    0.5000120000000000 Co
   0.3359160000000000    0.1640950000000000    0.7500200000000000 Co
   0.8359060000000000    0.6640850000000000    0.7500200000000000 Co
