Gd1 Hf2 Fe9
1.0
   4.7624289847839245    0.0000000000000000    6.9755558678515381
   2.1541305996118880    4.2474048823901782    6.9755555956850799
   0.0000000000000000    0.0000000000000000    8.4462474600000004
Gd Hf Fe
1 2 9
direct
   0.0000000000000000    0.0000000000000000    0.0000000000000000 Gd
   0.1430790000000000    0.1430790000000000    0.1430790000000000 Hf
   0.8569210000000000    0.8569210000000000    0.8569210000000000 Hf
   0.5000000000000000    0.5000000000000000    0.5000000000000000 Fe
   0.3330150000000000    0.3330150000000000    0.3330150000000000 Fe
   0.6669850000000001    0.6669850000000001    0.6669850000000001 Fe
   0.0820220000000000    0.5868070000000000    0.5868070000000000 Fe
   0.5868070000000000    0.5868070000000000    0.0820220000000000 Fe
   0.5868070000000000    0.0820220000000000    0.5868070000000000 Fe
   0.4131930000000000    0.9179780000000000    0.4131930000000000 Fe
   0.9179780000000000    0.4131930000000000    0.4131930000000000 Fe
   0.4131930000000000    0.4131930000000000    0.9179780000000000 Fe
