Gd1 Y1 Lu4 Fe18
1.0
   5.0570029999999999    0.0000000000000000    0.0000000000000003
  -2.5285020001897287    4.3794940002120137    0.0000000000000003
   0.0000000000000000    0.0000000000000000   15.9644320000000004
Gd Y Lu Fe
1 1 4 18
direct
   0.3333333333333333    0.6666666666666666    0.7500000000000000 Gd
   0.6666666666666666    0.3333333333333333    0.2500000000000000 Y
   0.3333333333333333    0.6666666666666666    0.9634420000000000 Lu
   0.6666666666666666    0.3333333333333333    0.0364840000000000 Lu
   0.6666666666666666    0.3333333333333333    0.4635160000000000 Lu
   0.3333333333333333    0.6666666666666666    0.5365580000000000 Lu
   0.1674850000000000    0.8325150000000000    0.3741210000000000 Fe
   0.1674850000000000    0.3349690000000000    0.3741210000000000 Fe
   0.6650310000000000    0.8325150000000000    0.3741210000000000 Fe
   0.8325350000000000    0.1674650000000000    0.6258610000000000 Fe
   0.8325350000000000    0.6650700000000001    0.6258610000000000 Fe
   0.3349300000000000    0.1674650000000000    0.6258610000000000 Fe
   0.8325350000000000    0.1674650000000000    0.8741390000000000 Fe
   0.8325350000000000    0.6650700000000001    0.8741390000000000 Fe
   0.3349300000000000    0.1674650000000000    0.8741390000000000 Fe
   0.1674850000000000    0.8325150000000000    0.1258790000000000 Fe
   0.1674850000000000    0.3349690000000000    0.1258790000000000 Fe
   0.6650310000000000    0.8325150000000000    0.1258790000000000 Fe
   0.3333333333333333    0.6666666666666666    0.2500000000000000 Fe
   0.6666666666666666    0.3333333333333333    0.7500000000000000 Fe
   0.0000000000000000    0.0000000000000000    0.2500000000000000 Fe
   0.0000000000000000    0.0000000000000000    0.7500000000000000 Fe
   0.0000000000000000    0.0000000000000000    0.5000640000000000 Fe
   0.0000000000000000    0.0000000000000000    0.9999360000000000 Fe
