Gd2 Ga2 Fe4
1.0
   4.9830230000000002    0.0000000000000000    0.0000000000000003
  -0.0000000000000002    3.9462449999999998    0.0000000000000002
   0.0000000000000000    0.0000000000000000    6.8835910000000000
Gd Ga Fe
2 2 4
direct
   0.7500000000000000    0.0000000000000000    0.8155540000000000 Gd
   0.2500000000000000    0.0000000000000000    0.1855490000000000 Gd
   0.7500000000000000    0.5000010000000000    0.1704750000000000 Ga
   0.2500000000000000    0.5000010000000000    0.8297820000000000 Ga
   0.7500000000000000    0.0000000000000000    0.4068380000000000 Fe
   0.0002200000000000    0.5000010000000000    0.4996920000000000 Fe
   0.4997800000000000    0.5000010000000000    0.4996920000000000 Fe
   0.2500000000000000    0.0000000000000000    0.5924180000000000 Fe
