Gd1 Lu1 Fe4
1.0
   4.3946369978422526    0.0000000000000000    2.5372449989152579
   1.4648789988107507    4.1433039982205369    2.5372449991238843
   0.0000000000000000    0.0000000000000000    5.0744899999999999
Gd Lu Fe
1 1 4
direct
   0.5000000000000000    0.5000000000000000    0.5000000000000000 Gd
   0.7500000000000000    0.7500000000000000    0.7500000000000000 Lu
   0.1249100000000000    0.1249100000000000    0.1249100000000000 Fe
   0.6252690000000000    0.1249100000000000    0.1249100000000000 Fe
   0.1249100000000000    0.6252690000000000    0.1249100000000000 Fe
   0.1249100000000000    0.1249100000000000    0.6252690000000000 Fe
