Gd2 Ga5 Fe12 C2
1.0
   6.5770079958159311    0.0000000000000000    0.7310019999435493
   0.5969210004414661    6.5498650015984321    0.7310020005988763
   0.0000000000000000    0.0000000000000000    6.5405369999999996
Gd Ga Fe C
2 5 12 2
direct
   0.3442980000000000    0.3442980000000000    0.3430300000000000 Gd
   0.6557020000000000    0.6557020000000000    0.6569700000000001 Gd
   0.6655320000000000    0.6655320000000000    0.1537600000000000 Ga
   0.3344680000000000    0.3344680000000000    0.8462400000000000 Ga
   0.0000000000000000    0.0000000000000000    0.5000000000000000 Ga
   0.7292520000000000    0.2707480000000000    0.0000000000000000 Ga
   0.2707480000000000    0.7292520000000000    0.0000000000000000 Ga
   0.6570610000000000    0.1429210000000000    0.6584160000000000 Fe
   0.1429210000000000    0.6570610000000000    0.6584160000000000 Fe
   0.3429390000000000    0.8570790000000000    0.3415840000000000 Fe
   0.8570790000000000    0.3429390000000000    0.3415840000000000 Fe
   0.0959270000000000    0.0959270000000000    0.0924960000000000 Fe
   0.9040730000000000    0.9040730000000000    0.9075040000000000 Fe
   0.0000000000000000    0.5000000000000000    0.0000000000000000 Fe
   0.5000000000000000    0.0000000000000000    0.0000000000000000 Fe
   0.2876560000000000    0.9995190000000000    0.7102850000000001 Fe
   0.0004810000000000    0.7123440000000000    0.2897150000000000 Fe
   0.7123440000000000    0.0004810000000000    0.2897150000000000 Fe
   0.9995190000000000    0.2876560000000000    0.7102850000000001 Fe
   0.5000000000000000    0.0000000000000000    0.5000000000000000 C
   0.0000000000000000    0.5000000000000000    0.5000000000000000 C
