Gd4 Fe7 Os1
1.0
   5.1782541135914899    0.0000000000000000   -0.0298850382454425
  -2.6028349704734874    4.2111930582705028    1.5186556994473233
   0.0000000000000000    0.0000000000000000    8.9279601799999995
Gd Fe Os
4 7 1
direct
   0.8754459999999999    0.7485420000000000    0.3760120000000000 Gd
   0.3748120000000000    0.7516220000000000    0.8735660000000000 Gd
   0.9996510000000000    0.0013980000000000    0.9989510000000000 Gd
   0.5000760000000000    0.9984710000000000    0.5014530000000000 Gd
   0.9374970000000000    0.3741070000000000    0.6883960000000000 Fe
   0.4378200000000000    0.8756450000000000    0.1865440000000000 Fe
   0.9373930000000000    0.8748359999999999    0.6884640000000000 Fe
   0.1854980000000000    0.3721170000000000    0.4423850000000000 Fe
   0.6895930000000000    0.3777320000000000    0.9326750000000000 Fe
   0.9378110000000000    0.3756360000000000    0.1865440000000000 Fe
   0.4367000000000000    0.3741430000000000    0.6884640000000000 Fe
   0.4377030000000000    0.3757490000000000    0.1865470000000000 Os
