Ce1 Gd1 Lu4 Fe18 P12
1.0
   3.6833710000000002    0.0000000000000000    0.0000000000000002
  -0.0000000000000006   10.4843700000000002    0.0000000000000006
   0.0000000000000000    0.0000000000000000   12.1626770000000004
Ce Gd Lu Fe P
1 1 4 18 12
direct
   0.5000000000000000    0.0000000000000000    0.4701430000000000 Ce
   0.0000000000000000    0.5000000000000000    0.5261520000000000 Gd
   0.5000000000000000    0.8197830000000000    0.2060490000000000 Lu
   0.5000000000000000    0.1802170000000000    0.2060490000000000 Lu
   0.0000000000000000    0.6795250000000000    0.7937940000000000 Lu
   0.0000000000000000    0.3204750000000000    0.7937940000000000 Lu
   0.5000000000000000    0.5000000000000000    0.1527830000000000 Fe
   0.0000000000000000    0.0000000000000000    0.8479080000000000 Fe
   0.5000000000000000    0.5000000000000000    0.7003410000000000 Fe
   0.0000000000000000    0.0000000000000000    0.3028070000000000 Fe
   0.0000000000000000    0.5000000000000000    0.9894770000000001 Fe
   0.5000000000000000    0.0000000000000000    0.0109020000000000 Fe
   0.5000000000000000    0.3268410000000000    0.9968800000000000 Fe
   0.5000000000000000    0.6731590000000000    0.9968800000000000 Fe
   0.0000000000000000    0.1718780000000000    0.0032910000000000 Fe
   0.0000000000000000    0.8281220000000000    0.0032910000000000 Fe
   0.5000000000000000    0.3007180000000000    0.4294960000000000 Fe
   0.5000000000000000    0.6992820000000000    0.4294960000000000 Fe
   0.0000000000000000    0.1991910000000000    0.5704270000000000 Fe
   0.0000000000000000    0.8008090000000000    0.5704270000000000 Fe
   0.5000000000000000    0.8823060000000000    0.7096710000000001 Fe
   0.5000000000000000    0.1176940000000000    0.7096710000000001 Fe
   0.0000000000000000    0.6170550000000000    0.2898090000000000 Fe
   0.0000000000000000    0.3829450000000000    0.2898090000000000 Fe
   0.5000000000000000    0.5000000000000000    0.8833470000000000 P
   0.0000000000000000    0.0000000000000000    0.1182450000000000 P
   0.5000000000000000    0.5000000000000000    0.3404740000000000 P
   0.0000000000000000    0.0000000000000000    0.6616220000000000 P
   0.5000000000000000    0.3062240000000000    0.6154200000000000 P
   0.5000000000000000    0.6937759999999999    0.6154200000000000 P
   0.0000000000000000    0.1974530000000000    0.3833530000000000 P
   0.0000000000000000    0.8025470000000000    0.3833530000000000 P
   0.5000000000000000    0.8502430000000000    0.8879420000000000 P
   0.5000000000000000    0.1497570000000000    0.8879420000000000 P
   0.0000000000000000    0.6499900000000000    0.1117690000000000 P
   0.0000000000000000    0.3500100000000000    0.1117690000000000 P
