Sm1 Gd1 Al3 Fe14 C2
1.0
   6.4600472814844307    0.0000000000000000    0.7044668060819437
   0.5716457912210317    6.4347046414207343    0.7044656694451933
   0.0000000000000000    0.0000000000000000    6.5001091999999998
Sm Gd Al Fe C
1 1 3 14 2
direct
   0.6567770000000001    0.6567770000000001    0.6594850000000000 Sm
   0.3418200000000000    0.3418200000000000    0.3401930000000000 Gd
   0.6558580000000001    0.6558580000000001    0.1495780000000000 Al
   0.3431440000000000    0.3431440000000000    0.8523910000000000 Al
   0.9999950000000000    0.9999950000000000    0.4994840000000000 Al
   0.6555070000000000    0.1447530000000000    0.6631899999999999 Fe
   0.1447530000000000    0.6555070000000000    0.6631899999999999 Fe
   0.3438490000000000    0.8563020000000000    0.3361750000000000 Fe
   0.8563020000000000    0.3438490000000000    0.3361750000000000 Fe
   0.0961400000000000    0.0961400000000000    0.0927890000000000 Fe
   0.9045210000000000    0.9045210000000000    0.9080230000000000 Fe
   0.0002330000000000    0.4995430000000000    0.0003110000000000 Fe
   0.4995430000000000    0.0002330000000000    0.0003110000000000 Fe
   0.7171240000000000    0.2821990000000000    0.0009140000000000 Fe
   0.2884790000000000    0.9960570000000000    0.7166910000000000 Fe
   0.0054590000000000    0.7107810000000000    0.2829450000000000 Fe
   0.7107810000000000    0.0054590000000000    0.2829450000000000 Fe
   0.9960570000000000    0.2884790000000000    0.7166910000000000 Fe
   0.2821990000000000    0.7171240000000000    0.0009140000000000 Fe
   0.4985060000000000    0.0029530000000000    0.4988020000000000 C
   0.0029530000000000    0.4985060000000000    0.4988020000000000 C
