Gd2 Ga3 Co14
1.0
   6.2707955310082069    0.0000000000000000    0.8003997761474148
   0.7047290326083050    6.2310707768960514    0.8003997999665394
   0.0000000000000000    0.0000000000000000    6.3216707999999997
Gd Ga Co
2 3 14
direct
   0.6591060000000000    0.6591060000000000    0.6591060000000000 Gd
   0.3319390000000000    0.3319390000000000    0.3319390000000000 Gd
   0.1560620000000000    0.6509490000000000    0.6509490000000000 Ga
   0.6509490000000000    0.6509490000000000    0.1560620000000000 Ga
   0.6509490000000000    0.1560620000000000    0.6509490000000000 Ga
   0.9077930000000000    0.9077930000000000    0.9077930000000000 Co
   0.0952810000000000    0.0952810000000000    0.0952810000000000 Co
   0.0043210000000000    0.0043210000000000    0.4958130000000000 Co
   0.0043210000000000    0.4958130000000000    0.0043210000000000 Co
   0.4958130000000000    0.0043210000000000    0.0043210000000000 Co
   0.2881920000000000    0.7128440000000000    0.0016860000000000 Co
   0.7128440000000000    0.0016860000000000    0.2881920000000000 Co
   0.0016860000000000    0.2881920000000000    0.7128440000000000 Co
   0.2881920000000000    0.0016860000000000    0.7128440000000000 Co
   0.0016860000000000    0.7128440000000000    0.2881920000000000 Co
   0.7128440000000000    0.2881920000000000    0.0016860000000000 Co
   0.8556160000000000    0.3412030000000000    0.3412030000000000 Co
   0.3412030000000000    0.3412030000000000    0.8556160000000000 Co
   0.3412030000000000    0.8556160000000000    0.3412030000000000 Co
