Gd1 Hf2 Ga2 Fe7
1.0
   4.8343362646667831    0.0000000000000000    6.9141661620653503
   2.1774395273838567    4.3161986393204366    6.9141657674249242
   0.0000000000000000    0.0000000000000000    8.4366177400000009
Gd Hf Ga Fe
1 2 2 7
direct
   0.0000000000000000    0.0000000000000000    0.0000000000000000 Gd
   0.1416610000000000    0.1416610000000000    0.1416610000000000 Hf
   0.8583390000000000    0.8583390000000000    0.8583390000000000 Hf
   0.3338710000000000    0.3338710000000000    0.3338710000000000 Ga
   0.6661290000000000    0.6661290000000000    0.6661290000000000 Ga
   0.5000000000000000    0.5000000000000000    0.5000000000000000 Fe
   0.0819600000000000    0.5885230000000000    0.5885230000000000 Fe
   0.5885230000000000    0.5885230000000000    0.0819600000000000 Fe
   0.5885230000000000    0.0819600000000000    0.5885230000000000 Fe
   0.4114770000000000    0.9180400000000000    0.4114770000000000 Fe
   0.9180400000000000    0.4114770000000000    0.4114770000000000 Fe
   0.4114770000000000    0.4114770000000000    0.9180400000000000 Fe
