Gd4 Fe11 Co3
1.0
   4.9600316793360770    0.0000000000000000    1.0299631008133479
   2.3487961827067769    4.3639571463440108    1.0239901703110841
   0.0000000000000000    0.0000000000000000   12.4846338899999996
Gd Fe Co
4 11 3
direct
   0.0522710000000000    0.0522220000000000    0.8432340000000000 Gd
   0.9480150000000001    0.9478610000000000    0.1559850000000000 Gd
   0.1501880000000000    0.1488480000000000    0.5510860000000000 Gd
   0.8505860000000000    0.8512370000000000    0.4475350000000000 Gd
   0.2796840000000000    0.2789870000000000    0.1644100000000000 Fe
   0.7204330000000000    0.7198420000000000    0.8355890000000000 Fe
   0.3887970000000000    0.3891610000000000    0.8367900000000000 Fe
   0.6112100000000000    0.6112950000000000    0.1634320000000000 Fe
   0.4997840000000000    0.0002700000000000    0.0001680000000000 Fe
   0.9997000000000000    0.4999990000000000    0.0001740000000000 Fe
   0.1095170000000000    0.6094580000000001    0.6716650000000000 Fe
   0.6095290000000000    0.6094980000000000    0.6715680000000001 Fe
   0.6096620000000000    0.1088860000000000    0.6717980000000000 Fe
   0.8900480000000000    0.3907040000000000    0.3287390000000000 Fe
   0.3905820000000000    0.3906270000000000    0.3287360000000000 Fe
   0.4995940000000000    0.4999240000000000    0.5010220000000000 Co
   0.4999540000000000    0.5001710000000000    0.0001180000000000 Co
   0.3904470000000000    0.8910090000000001    0.3279510000000000 Co
