Gd1 Zr1 Ti1 Fe9
1.0
   4.7390772451043990    0.0000000000000000    1.4608375359107604
   2.1443848734541300    4.2261645779359487    1.4608374362930157
   0.0000000000000000    0.0000000000000000    8.4174030099999992
Gd Zr Ti Fe
1 1 1 9
direct
   0.0013550000000000    0.0013550000000000    0.9959350000000000 Gd
   0.8557260000000000    0.8557260000000000    0.4328220000000000 Zr
   0.1431690000000000    0.1431690000000000    0.5704939999999999 Ti
   0.0832160000000000    0.5861660000000000    0.7444520000000000 Fe
   0.5861660000000000    0.5861660000000000    0.7444520000000000 Fe
   0.5861660000000000    0.0832160000000000    0.7444520000000000 Fe
   0.9178210000000000    0.4132750000000000    0.2556300000000000 Fe
   0.4132750000000000    0.4132750000000000    0.2556300000000000 Fe
   0.4132750000000000    0.9178210000000000    0.2556300000000000 Fe
   0.3329380000000000    0.3329380000000000    0.0011860000000000 Fe
   0.6670670000000000    0.6670670000000000    0.9987960000000000 Fe
   0.4998270000000000    0.4998270000000000    0.5005200000000000 Fe
