Gd2 Al2 Fe6 C2
1.0
   5.1659079999999999    0.0000000000000000    0.0000000000000003
  -2.5829539978370835    4.4738069970587500    0.0000000000000003
   0.0000000000000000    0.0000000000000000    6.6593390000000001
Gd Al Fe C
2 2 6 2
direct
   0.0000000000000000    0.0000000000000000    0.0000000000000000 Gd
   0.0000000000000000    0.0000000000000000    0.5000000000000000 Gd
   0.6666666666666666    0.3333333333333333    0.0000000000000000 Al
   0.3333333333333333    0.6666666666666666    0.0000000000000000 Al
   0.5000000000000000    0.5000000000000000    0.6941730000000000 Fe
   0.5000000000000000    0.0000000000000000    0.6941730000000000 Fe
   0.0000000000000000    0.5000000000000000    0.6941730000000000 Fe
   0.5000000000000000    0.5000000000000000    0.3058270000000000 Fe
   0.5000000000000000    0.0000000000000000    0.3058270000000000 Fe
   0.0000000000000000    0.5000000000000000    0.3058270000000000 Fe
   0.6666666666666666    0.3333333333333333    0.5000000000000000 C
   0.3333333333333333    0.6666666666666666    0.5000000000000000 C
