Gd2 Be3 Fe14 C3
1.0
   6.2773480135170479    0.0000000000000000    0.7333656761176737
   0.6526769957720694    6.2433249387943039    0.7333662658652140
   0.0000000000000000    0.0000000000000000    6.3200413600000003
Gd Be Fe C
2 3 14 3
direct
   0.6549910000000000    0.6549910000000000    0.6549910000000000 Gd
   0.3450090000000000    0.3450090000000000    0.3450090000000000 Gd
   0.0000000000000000    0.0000000000000000    0.5000000000000000 Be
   0.5000000000000000    0.0000000000000000    0.0000000000000000 Be
   0.0000000000000000    0.5000000000000000    0.0000000000000000 Be
   0.7199440000000000    0.2800560000000000    0.0000000000000000 Fe
   0.0000000000000000    0.7199440000000000    0.2800560000000000 Fe
   0.2800560000000000    0.0000000000000000    0.7199440000000000 Fe
   0.0000000000000000    0.2800560000000000    0.7199440000000000 Fe
   0.7199440000000000    0.0000000000000000    0.2800560000000000 Fe
   0.2800560000000000    0.7199440000000000    0.0000000000000000 Fe
   0.3386350000000000    0.3386350000000000    0.8608640000000000 Fe
   0.8608640000000000    0.3386350000000000    0.3386350000000000 Fe
   0.3386350000000000    0.8608640000000000    0.3386350000000000 Fe
   0.6613650000000000    0.6613650000000000    0.1391360000000000 Fe
   0.1391360000000000    0.6613650000000000    0.6613650000000000 Fe
   0.6613650000000000    0.1391360000000000    0.6613650000000000 Fe
   0.9011800000000000    0.9011800000000000    0.9011800000000000 Fe
   0.0988200000000000    0.0988200000000000    0.0988200000000000 Fe
   0.5000000000000000    0.5000000000000000    0.0000000000000000 C
   0.0000000000000000    0.5000000000000000    0.5000000000000000 C
   0.5000000000000000    0.0000000000000000    0.5000000000000000 C
