Ce4 Gd1 Fe19 P12
1.0
  12.0391840000000006    0.0000000000000000    0.0000000000000007
  -6.0195920019739040   10.4262400035328930    0.0000000000000007
   0.0000000000000000    0.0000000000000000    3.7415250000000002
Ce Gd Fe P
4 1 19 12
direct
   0.6666666666666666    0.3333333333333333    0.0000000000000000 Ce
   0.1849220000000000    0.1836970000000000    0.5000000000000000 Ce
   0.8163030000000000    0.0012250000000000    0.5000000000000000 Ce
   0.9987750000000000    0.8150780000000000    0.5000000000000000 Ce
   0.3333333333333333    0.6666666666666666    0.0000000000000000 Gd
   0.8192440000000000    0.1973350000000000    0.0000000000000000 Fe
   0.8026650000000000    0.6219060000000000    0.0000000000000000 Fe
   0.3780940000000000    0.1807560000000000    0.0000000000000000 Fe
   0.1965390000000000    0.8159690000000001    0.0000000000000000 Fe
   0.6194290000000000    0.8034610000000000    0.0000000000000000 Fe
   0.1840310000000000    0.3805710000000000    0.0000000000000000 Fe
   0.5602140000000000    0.5604000000000000    0.0000000000000000 Fe
   0.4396000000000000    0.9998130000000000    0.0000000000000000 Fe
   0.0001870000000000    0.4397860000000000    0.0000000000000000 Fe
   0.6369640000000000    0.1225430000000000    0.5000000000000000 Fe
   0.8774570000000000    0.5144200000000000    0.5000000000000000 Fe
   0.4855800000000000    0.3630360000000000    0.5000000000000000 Fe
   0.1210410000000000    0.6354930000000000    0.5000000000000000 Fe
   0.5144520000000000    0.8789590000000000    0.5000000000000000 Fe
   0.3645070000000000    0.4855480000000000    0.5000000000000000 Fe
   0.7116650000000000    0.7140030000000001    0.5000000000000000 Fe
   0.2859970000000000    0.9976620000000000    0.5000000000000000 Fe
   0.0023380000000000    0.2883350000000000    0.5000000000000000 Fe
   0.0000000000000000    0.0000000000000000    0.0000000000000000 Fe
   0.3746360000000000    0.3738440000000000    0.0000000000000000 P
   0.6261560000000000    0.0007920000000000    0.0000000000000000 P
   0.9992080000000000    0.6253640000000000    0.0000000000000000 P
   0.8339180000000000    0.3090410000000000    0.5000000000000000 P
   0.6909590000000000    0.5248770000000000    0.5000000000000000 P
   0.4751230000000000    0.1660820000000000    0.5000000000000000 P
   0.3081550000000000    0.8287850000000000    0.5000000000000000 P
   0.5206290000000000    0.6918450000000000    0.5000000000000000 P
   0.1712150000000000    0.4793710000000000    0.5000000000000000 P
   0.8108390000000000    0.8127720000000000    0.0000000000000000 P
   0.1872280000000000    0.9980670000000000    0.0000000000000000 P
   0.0019330000000000    0.1891610000000000    0.0000000000000000 P
