SYSTEM = Al3C2Fe14Gd2_sub fm RE-TM exchange
PREC = Accurate
ENCUT = 520
EDIFF = 1E-07
NELM = 400
ALGO = Normal
ISMEAR = 1
SIGMA = 0.2
ISPIN = 2
MAGMOM = 2*7.00  3*0.00  14*2.50  2*0.00
LORBIT = 11
LASPH = .TRUE.
LMAXMIX = 6
LDAU = .TRUE.
LDAUTYPE = 2
LDAUL = 3 -1 -1 -1
LDAUU = 6.70 0.00 0.00 0.00
LDAUJ = 0.70 0.00 0.00 0.00
LDAUPRINT = 1
LREAL = .FALSE.
LWAVE = .FALSE.
LCHARG = .FALSE.
KPAR = 4
IBRION = -1
NSW = 0
AMIX = 0.2
BMIX = 0.0001
AMIX_MAG = 0.8
BMIX_MAG = 0.0001
ISTART = 0
ICHARG = 2
NUPDOWN = 32
