Gd4 Fe12 Co2
1.0
   4.9590754675592077    0.0000000000000000    1.0362897318277162
   2.3716184073023991    4.3480955568679791    1.0345817209686066
   0.0000000000000000    0.0000000000000000   12.3837687400000007
Gd Fe Co
4 12 2
direct
   0.9477130000000000    0.9476170000000000    0.1569570000000000 Gd
   0.0522870000000000    0.0523830000000000    0.8430430000000000 Gd
   0.8504940000000000    0.8505670000000000    0.4484460000000000 Gd
   0.1495060000000000    0.1494330000000000    0.5515540000000000 Gd
   0.7211510000000000    0.7222640000000000    0.8354340000000000 Fe
   0.2788490000000000    0.2777360000000000    0.1645660000000000 Fe
   0.6115210000000000    0.6134940000000000    0.1634630000000000 Fe
   0.3884790000000000    0.3865060000000000    0.8365370000000000 Fe
   0.0000000000000000    0.5000000000000000    0.0000000000000000 Fe
   0.5000000000000000    0.5000000000000000    0.0000000000000000 Fe
   0.3901090000000000    0.3902070000000000    0.3288480000000000 Fe
   0.8908350000000000    0.3902070000000000    0.3288480000000000 Fe
   0.3902140000000000    0.8909410000000000    0.3286300000000000 Fe
   0.6098910000000000    0.6097930000000000    0.6711520000000000 Fe
   0.1091650000000000    0.6097930000000000    0.6711520000000000 Fe
   0.6097860000000001    0.1090590000000000    0.6713700000000000 Fe
   0.5000000000000000    0.5000000000000000    0.5000000000000000 Co
   0.5000000000000000    0.0000000000000000    0.0000000000000000 Co
