Gd2 Lu4 Fe14 B4
1.0
   5.0905649999999998    0.0000000000000000    0.0000000000000003
  -2.5452819992008533    4.4085579980860317    0.0000000000000003
   0.0000000000000000    0.0000000000000000   14.4100979999999996
Gd Lu Fe B
2 4 14 4
direct
   0.3333333333333333    0.6666666666666666    0.7500000000000000 Gd
   0.6666666666666666    0.3333333333333333    0.2500000000000000 Gd
   0.3333333333333333    0.6666666666666666    0.5343850000000000 Lu
   0.6666666666666666    0.3333333333333333    0.0343850000000000 Lu
   0.6666666666666666    0.3333333333333333    0.4656150000000000 Lu
   0.3333333333333333    0.6666666666666666    0.9656150000000000 Lu
   0.0000000000000000    0.0000000000000000    0.0000000000000000 Fe
   0.0000000000000000    0.0000000000000000    0.5000000000000000 Fe
   0.1664200000000000    0.3328390000000000    0.1448200000000000 Fe
   0.8335800000000000    0.6671610000000000    0.6448199999999999 Fe
   0.6671610000000000    0.8335800000000000    0.1448200000000000 Fe
   0.1664200000000000    0.8335800000000000    0.1448200000000000 Fe
   0.8335800000000000    0.1664200000000000    0.6448199999999999 Fe
   0.3328390000000000    0.1664200000000000    0.6448199999999999 Fe
   0.8335800000000000    0.6671610000000000    0.8551800000000001 Fe
   0.8335800000000000    0.1664200000000000    0.8551800000000001 Fe
   0.3328390000000000    0.1664200000000000    0.8551800000000001 Fe
   0.6671610000000000    0.8335800000000000    0.3551800000000000 Fe
   0.1664200000000000    0.8335800000000000    0.3551800000000000 Fe
   0.1664200000000000    0.3328390000000000    0.3551800000000000 Fe
   0.3333333333333333    0.6666666666666666    0.2500000000000000 B
   0.6666666666666666    0.3333333333333333    0.7500000000000000 B
   0.0000000000000000    0.0000000000000000    0.2500000000000000 B
   0.0000000000000000    0.0000000000000000    0.7500000000000000 B
