Gd4 Fe6 Os2
1.0
   5.2103761238261450    0.0000000000000000   -0.0789425586880176
  -2.6439014256706317    4.2108986173651886    1.5596057496864060
   0.0000000000000000    0.0000000000000000    8.9523437599999998
Gd Fe Os
4 6 2
direct
   0.3749480000000000    0.7501010000000000    0.8749510000000000 Gd
   0.0000420000000000    0.9997860000000000    0.0001720000000000 Gd
   0.5003720000000000    0.9999420000000000    0.4996870000000000 Gd
   0.8748330000000000    0.7500490000000000    0.3751170000000000 Gd
   0.4373100000000000    0.8744420000000001    0.1881970000000000 Fe
   0.9375670000000000    0.8753750000000000    0.6868880000000001 Fe
   0.1876190000000000    0.3750520000000000    0.4373290000000000 Fe
   0.6874530000000000    0.3750190000000000    0.9375270000000000 Fe
   0.9373610000000000    0.3744930000000000    0.1881970000000000 Fe
   0.4377370000000000    0.3755450000000000    0.6868880000000001 Fe
   0.4374620000000000    0.3741330000000000    0.1884050000000000 Os
   0.9372940000000000    0.3760630000000000    0.6866430000000000 Os
