Gd2 Zn1 Ga1 Fe4
1.0
   4.9632199999999997    0.0000000000000000    0.0000000000000003
  -0.0000000000000002    3.9417749999999998    0.0000000000000002
   0.0000000000000000    0.0000000000000000    6.9376340000000001
Gd Zn Ga Fe
2 1 1 4
direct
   0.2500000000000000    0.0000000000000000    0.1852300000000000 Gd
   0.7500000000000000    0.0000000000000000    0.8135300000000000 Gd
   0.7500000000000000    0.5000010000000000    0.1677570000000000 Zn
   0.2500000000000000    0.5000010000000000    0.8306280000000000 Ga
   0.7500000000000000    0.0000000000000000    0.4110670000000000 Fe
   0.9987520000000000    0.5000010000000000    0.5004050000000000 Fe
   0.5012480000000000    0.5000010000000000    0.5004050000000000 Fe
   0.2500000000000000    0.0000000000000000    0.5909810000000000 Fe
