Ce1 Gd2 Co9
1.0
   4.7431561154810655    0.0000000000000000    7.2119256632980031
   2.1590319597944876    4.2232827253568299    7.2119256151750362
   0.0000000000000000    0.0000000000000000    8.6318839900000004
Ce Gd Co
1 2 9
direct
   0.0000000000000000    0.0000000000000000    0.0000000000000000 Ce
   0.8598960000000000    0.8598960000000000    0.8598960000000000 Gd
   0.1401040000000000    0.1401040000000000    0.1401040000000000 Gd
   0.4156970000000000    0.9214790000000000    0.4156970000000000 Co
   0.3348700000000000    0.3348700000000000    0.3348700000000000 Co
   0.6651300000000000    0.6651300000000000    0.6651300000000000 Co
   0.5843030000000000    0.5843030000000000    0.0785210000000000 Co
   0.5843030000000000    0.0785210000000000    0.5843030000000000 Co
   0.4156970000000000    0.4156970000000000    0.9214790000000000 Co
   0.0785210000000000    0.5843030000000000    0.5843030000000000 Co
   0.9214790000000000    0.4156970000000000    0.4156970000000000 Co
   0.5000000000000000    0.5000000000000000    0.5000000000000000 Co
