Gd3 Lu1 Fe14
1.0
   4.9539644042757676    0.0000000000000000    1.0394567730448048
   2.3738446795724473    4.3481757116853483    1.0394569313816011
   0.0000000000000000    0.0000000000000000   12.2992674700000002
Gd Lu Fe
3 1 14
direct
   0.0520890000000000    0.0520890000000000    0.8433770000000000 Gd
   0.9474420000000000    0.9474420000000000    0.1580400000000000 Gd
   0.1495850000000000    0.1495850000000000    0.5506340000000000 Gd
   0.8508310000000000    0.8508310000000000    0.4478480000000000 Lu
   0.5002640000000000    0.5002640000000000    0.4992410000000000 Fe
   0.2784820000000000    0.2784820000000000    0.1644330000000000 Fe
   0.7214210000000000    0.7214210000000000    0.8358530000000000 Fe
   0.3874200000000000    0.3874200000000000    0.8372550000000000 Fe
   0.6124500000000000    0.6124500000000000    0.1630110000000000 Fe
   0.4998880000000000    0.4998880000000000    0.0002560000000000 Fe
   0.4999160000000000    0.0000640000000000    0.0002220000000000 Fe
   0.0000640000000000    0.4999160000000000    0.0002220000000000 Fe
   0.1091260000000000    0.6097170000000000    0.6708960000000000 Fe
   0.6098000000000000    0.6098000000000000    0.6710070000000000 Fe
   0.6097170000000000    0.1091260000000000    0.6708960000000000 Fe
   0.8908560000000000    0.3903140000000000    0.3289710000000000 Fe
   0.3903330000000000    0.3903330000000000    0.3288660000000000 Fe
   0.3903140000000000    0.8908560000000000    0.3289710000000000 Fe
