Gd4 Fe34 C3
1.0
   6.4378478571263686    0.0000000000000000    0.7012664397352747
   0.6294849145126923    6.3695598813709733    0.7321417530054873
   0.0000000000000000    0.0000000000000000   12.8968032699999995
Gd Fe C
4 34 3
direct
   0.6642246200000000    0.6504968700000000    0.3263172300000000 Gd
   0.6598958800000000    0.6617593700000000    0.8236423899999999 Gd
   0.3357753800000000    0.3495031300000000    0.1736827700000000 Gd
   0.3401041200000000    0.3382406300000000    0.6763576100000001 Gd
   0.8556134600000000    0.3446140400000000    0.1720750300000000 Fe
   0.8513695600000000    0.3440340300000000    0.6731793300000000 Fe
   0.3410690300000000    0.3446095300000000    0.4281075200000000 Fe
   0.3435104100000000    0.3424853200000000    0.9249842100000000 Fe
   0.3415581800000000    0.8544852400000000    0.1716611100000000 Fe
   0.3422334700000000    0.8517926500000000    0.6728040500000000 Fe
   0.1443865400000000    0.6553859600000000    0.3279249700000000 Fe
   0.1486304400000000    0.6559659700000000    0.8268206700000000 Fe
   0.6589309700000000    0.6553904699999999    0.0718924800000000 Fe
   0.6564895900000000    0.6575146800000000    0.5750157900000000 Fe
   0.6584418200000000    0.1455147600000000    0.3283388900000000 Fe
   0.6577665300000000    0.1482073500000000    0.8271959500000000 Fe
   0.9038794600000000    0.9026114900000000    0.4514556400000000 Fe
   0.9045083000000000    0.9037048700000000    0.9509260700000000 Fe
   0.0961205400000000    0.0973885100000000    0.0485443600000000 Fe
   0.0954917000000000    0.0962951300000000    0.5490739300000000 Fe
   0.2854546100000000    0.7151838400000000    0.9991289700000000 Fe
   0.2856583200000000    0.7148161500000000    0.5005044199999999 Fe
   0.7138487400000000    0.0008527200000000    0.1421299800000000 Fe
   0.7167295200000000    0.0006594200000000    0.6427098900000000 Fe
   0.0006858500000000    0.2834194500000000    0.3584294300000000 Fe
   0.9988543100000000    0.2871567200000000    0.8568537200000000 Fe
   0.2861512600000000    0.9991472800000000    0.3578700200000000 Fe
   0.2832704800000000    0.9993405800000000    0.8572901100000000 Fe
   0.9993141500000000    0.7165805500000000    0.1415705700000000 Fe
   0.0011456900000000    0.7128432800000000    0.6431462800000000 Fe
   0.7145453899999999    0.2848161600000000    0.5008710300000000 Fe
   0.7143416800000000    0.2851838500000000    0.9994955800000001 Fe
   0.0000000000000000    0.0000000000000000    0.2500000000000000 Fe
   0.0000000000000000    0.0000000000000000    0.7500000000000000 Fe
   0.0015249000000000    0.5004588700000000    0.9993854800000000 Fe
   0.9984750999999999    0.4995411300000000    0.5006145200000000 Fe
   0.4992754000000000    0.0016607800000000    0.5016916400000000 Fe
   0.5007246000000000    0.9983392200000000    0.9983083600000000 Fe
   0.5008793400000000    0.4999842500000000    0.5010252100000000 C
   0.4991206600000000    0.5000157500000000    0.9989747900000000 C
   0.5000000000000000    0.0000000000000000    0.2500000000000000 C
