Gd1 Y1 Zr1 Fe9
1.0
   4.7988716681845958    0.0000000000000000    1.4861970056480416
   2.1692993281764523    4.2805734410507128    1.4861973520602130
   0.0000000000000000    0.0000000000000000    8.4907794899999995
Gd Y Zr Fe
1 1 1 9
direct
   0.1421610000000000    0.1421610000000000    0.5735150000000000 Gd
   0.9997509999999999    0.9997509999999999    0.0007460000000000 Y
   0.8575750000000000    0.8575750000000000    0.4272760000000000 Zr
   0.0829570000000000    0.5842950000000000    0.7484520000000000 Fe
   0.5842950000000000    0.5842950000000000    0.7484520000000000 Fe
   0.5842950000000000    0.0829570000000000    0.7484520000000000 Fe
   0.9168380000000000    0.4160450000000000    0.2510750000000000 Fe
   0.4160450000000000    0.4160450000000000    0.2510750000000000 Fe
   0.4160450000000000    0.9168380000000000    0.2510750000000000 Fe
   0.3326360000000000    0.3326360000000000    0.0020920000000000 Fe
   0.6672900000000000    0.6672900000000000    0.9981300000000000 Fe
   0.5001130000000000    0.5001130000000000    0.4996600000000000 Fe
