Gd2 Y2 Cr2 Fe18 P12
1.0
   3.6639409999999999    0.0000000000000000    0.0000000000000002
  -0.0000000000000006   10.3244369999999996    0.0000000000000006
   0.0000000000000000    0.0000000000000000   11.8718149999999998
Gd Y Cr Fe P
2 2 2 18 12
direct
   0.7500000000000000    0.4189470000000000    0.2954360000000000 Gd
   0.7500000000000000    0.0810530000000000    0.7954360000000000 Gd
   0.2500000000000000    0.5812520000000000    0.7044850000000000 Y
   0.2500000000000000    0.9187480000000000    0.2044850000000000 Y
   0.2500000000000000    0.7032290000000000    0.9894680000000000 Cr
   0.2500000000000000    0.7967710000000000    0.4894680000000000 Cr
   0.7500000000000000    0.2930920000000000    0.0120440000000000 Fe
   0.7500000000000000    0.2069080000000000    0.5120440000000001 Fe
   0.2500000000000000    0.4040800000000000    0.4902160000000000 Fe
   0.2500000000000000    0.0959200000000000    0.9902160000000000 Fe
   0.7500000000000000    0.5945160000000000    0.5091880000000000 Fe
   0.7500000000000000    0.9054840000000000    0.0091880000000000 Fe
   0.2500000000000000    0.2194940000000000    0.1762510000000000 Fe
   0.2500000000000000    0.2805060000000000    0.6762510000000000 Fe
   0.7500000000000000    0.7821020000000000    0.8241270000000001 Fe
   0.7500000000000000    0.7178980000000000    0.3241270000000000 Fe
   0.2500000000000000    0.8757550000000000    0.7012040000000000 Fe
   0.2500000000000000    0.6242450000000000    0.2012040000000000 Fe
   0.7500000000000000    0.1243510000000000    0.2997730000000000 Fe
   0.7500000000000000    0.3756490000000000    0.7997730000000000 Fe
   0.2500000000000000    0.4621550000000000    0.9327790000000000 Fe
   0.2500000000000000    0.0378450000000000    0.4327790000000000 Fe
   0.7500000000000000    0.5342730000000000    0.0662520000000000 Fe
   0.7500000000000000    0.9657270000000000    0.5662520000000000 Fe
   0.2500000000000000    0.4226360000000000    0.1130780000000000 P
   0.2500000000000000    0.0773640000000000    0.6130780000000000 P
   0.7500000000000000    0.5780920000000001    0.8868320000000000 P
   0.7500000000000000    0.9219079999999999    0.3868320000000000 P
   0.2500000000000000    0.2655870000000000    0.8710350000000000 P
   0.2500000000000000    0.2344130000000000    0.3710350000000000 P
   0.7500000000000000    0.7326830000000000    0.1302700000000000 P
   0.7500000000000000    0.7673170000000000    0.6302700000000000 P
   0.2500000000000000    0.5974290000000000    0.3936870000000000 P
   0.2500000000000000    0.9025710000000000    0.8936870000000000 P
   0.7500000000000000    0.3981060000000000    0.6038710000000000 P
   0.7500000000000000    0.1018940000000000    0.1038710000000000 P
