Gd1 Lu4 Fe18 Co1 P12
1.0
  11.8804289999999995    0.0000000000000000    0.0000000000000007
  -5.9402139997598749   10.2887529986798363    0.0000000000000007
   0.0000000000000000    0.0000000000000000    3.6644790000000000
Gd Lu Fe Co P
1 4 18 1 12
direct
   0.3333333333333333    0.6666666666666666    0.5000000000000000 Gd
   0.6666666666666666    0.3333333333333333    0.5000000000000000 Lu
   0.1841210000000000    0.9999860000000000    0.0000000000000000 Lu
   0.0000140000000000    0.1841350000000000    0.0000000000000000 Lu
   0.8158650000000000    0.8158790000000000    0.0000000000000000 Lu
   0.1980020000000000    0.3791540000000000    0.5000000000000000 Fe
   0.6208460000000000    0.8188480000000000    0.5000000000000000 Fe
   0.1811520000000000    0.8019980000000000    0.5000000000000000 Fe
   0.8187110000000000    0.6205380000000000    0.5000000000000000 Fe
   0.8018270000000000    0.1812890000000000    0.5000000000000000 Fe
   0.3794620000000000    0.1981730000000000    0.5000000000000000 Fe
   0.5562030000000000    0.9999100000000000    0.5000000000000000 Fe
   0.0000900000000000    0.5562930000000000    0.5000000000000000 Fe
   0.4437070000000000    0.4437970000000000    0.5000000000000000 Fe
   0.1227270000000000    0.4813390000000000    0.0000000000000000 Fe
   0.5186610000000000    0.6413890000000000    0.0000000000000000 Fe
   0.3586110000000000    0.8772730000000000    0.0000000000000000 Fe
   0.6413330000000000    0.5183370000000000    0.0000000000000000 Fe
   0.8770040000000000    0.3586670000000000    0.0000000000000000 Fe
   0.4816630000000000    0.1229960000000000    0.0000000000000000 Fe
   0.7157380000000000    0.0000910000000000    0.0000000000000000 Fe
   0.9999090000000000    0.7156470000000000    0.0000000000000000 Fe
   0.2843530000000000    0.2842620000000000    0.0000000000000000 Fe
   0.0000000000000000    0.0000000000000000    0.5000000000000000 Co
   0.3695550000000000    0.9999810000000000    0.5000000000000000 P
   0.0000190000000000    0.3695740000000000    0.5000000000000000 P
   0.6304260000000000    0.6304450000000000    0.5000000000000000 P
   0.3147690000000000    0.4795120000000000    0.0000000000000000 P
   0.5204880000000000    0.8352560000000000    0.0000000000000000 P
   0.1647440000000000    0.6852310000000000    0.0000000000000000 P
   0.8348350000000000    0.5200370000000000    0.0000000000000000 P
   0.6852020000000000    0.1651650000000000    0.0000000000000000 P
   0.4799630000000000    0.3147980000000000    0.0000000000000000 P
   0.8169030000000000    0.0000390000000000    0.5000000000000000 P
   0.9999610000000000    0.8168640000000000    0.5000000000000000 P
   0.1831360000000000    0.1830970000000000    0.5000000000000000 P
