Gd3 Y1 Cr2 Fe18 P12
1.0
   3.6593650000000002    0.0000000000000000    0.0000000000000002
  -0.0000000000000006   10.3092015506737216   -0.0035152739827098
   0.0000000000000000    0.0000000000000000   11.8554921699999998
Gd Y Cr Fe P
3 1 2 18 12
direct
   0.2500000000000000    0.9188740000000000    0.2042480000000000 Gd
   0.7500000000000000    0.4192740000000000    0.2952900000000000 Gd
   0.7500000000000000    0.0808310000000000    0.7955390000000000 Gd
   0.2500000000000000    0.5811800000000000    0.7043330000000000 Y
   0.2500000000000000    0.7031130000000000    0.9898380000000000 Cr
   0.2500000000000000    0.7969920000000000    0.4896310000000000 Cr
   0.7500000000000000    0.2929770000000000    0.0116900000000000 Fe
   0.7500000000000000    0.2068700000000000    0.5115290000000000 Fe
   0.2500000000000000    0.4040900000000000    0.4901580000000000 Fe
   0.2500000000000000    0.0958360000000000    0.9903090000000000 Fe
   0.7500000000000000    0.5947550000000000    0.5093000000000000 Fe
   0.7500000000000000    0.9053300000000000    0.0096870000000000 Fe
   0.2500000000000000    0.2197090000000000    0.1759520000000000 Fe
   0.2500000000000000    0.2801970000000000    0.6760330000000000 Fe
   0.7500000000000000    0.7818850000000001    0.8247409999999999 Fe
   0.7500000000000000    0.7182940000000000    0.3245310000000000 Fe
   0.2500000000000000    0.8759209999999999    0.7014300000000000 Fe
   0.2500000000000000    0.6242890000000000    0.2014190000000000 Fe
   0.7500000000000000    0.1247080000000000    0.2993360000000000 Fe
   0.7500000000000000    0.3750030000000000    0.7994670000000000 Fe
   0.2500000000000000    0.4618380000000000    0.9326960000000000 Fe
   0.2500000000000000    0.0380310000000000    0.4324870000000000 Fe
   0.7500000000000000    0.5340760000000000    0.0663580000000000 Fe
   0.7500000000000000    0.9660940000000000    0.5660269999999999 Fe
   0.2500000000000000    0.4228330000000000    0.1131680000000000 P
   0.2500000000000000    0.0772250000000000    0.6130660000000000 P
   0.7500000000000000    0.5775610000000000    0.8867580000000000 P
   0.7500000000000000    0.9223680000000000    0.3864170000000000 P
   0.2500000000000000    0.2651140000000000    0.8710170000000000 P
   0.2500000000000000    0.2346160000000000    0.3708020000000000 P
   0.7500000000000000    0.7324840000000000    0.1309940000000000 P
   0.7500000000000000    0.7676360000000000    0.6307120000000001 P
   0.2500000000000000    0.5977170000000001    0.3937300000000000 P
   0.2500000000000000    0.9025150000000000    0.8940350000000000 P
   0.7500000000000000    0.3977850000000000    0.6035790000000000 P
   0.7500000000000000    0.1019770000000000    0.1036880000000000 P
