Gd6 Fe14 B4
1.0
   5.1168380000000004    0.0000000000000000    0.0000000000000003
  -2.5584189977469185    4.4313119965725134    0.0000000000000003
   0.0000000000000000    0.0000000000000000   14.5049189999999992
Gd Fe B
6 14 4
direct
   0.6666666666666666    0.3333333333333333    0.9655920000000000 Gd
   0.6666666666666666    0.3333333333333333    0.5341040000000000 Gd
   0.3333333333333333    0.6666666666666666    0.0343570000000000 Gd
   0.6666666666666666    0.3333333333333333    0.7497930000000000 Gd
   0.3333333333333333    0.6666666666666666    0.2503190000000000 Gd
   0.3333333333333333    0.6666666666666666    0.4655650000000000 Gd
   0.8341980000000000    0.6683980000000000    0.3541730000000000 Fe
   0.3316020000000000    0.1658020000000000    0.3541730000000000 Fe
   0.0000000000000000    0.0000000000000000    0.9999550000000000 Fe
   0.0000000000000000    0.0000000000000000    0.4999300000000000 Fe
   0.8343880000000000    0.1656120000000000    0.1467400000000000 Fe
   0.6677530000000000    0.8338760000000000    0.6459790000000000 Fe
   0.1661240000000000    0.3322470000000000    0.6459790000000000 Fe
   0.8343880000000000    0.6687760000000000    0.1467400000000000 Fe
   0.3312240000000000    0.1656120000000000    0.1467400000000000 Fe
   0.6687700000000000    0.8343840000000000    0.8532000000000000 Fe
   0.1656160000000000    0.3312300000000000    0.8532000000000000 Fe
   0.1661240000000000    0.8338760000000000    0.6459790000000000 Fe
   0.1656160000000000    0.8343840000000000    0.8532000000000000 Fe
   0.8341980000000000    0.1658020000000000    0.3541730000000000 Fe
   0.6666666666666666    0.3333333333333333    0.2502080000000000 B
   0.3333333333333333    0.6666666666666666    0.7499640000000000 B
   0.0000000000000000    0.0000000000000000    0.7496230000000000 B
   0.0000000000000000    0.0000000000000000    0.2503140000000000 B
