Gd1 Sc1 Nb1 Fe9
1.0
   4.7307963139387086    0.0000000000000000    1.4586517767493978
   2.1405243602566197    4.2188377234003811    1.4586515954052808
   0.0000000000000000    0.0000000000000000    8.4009416300000002
Gd Sc Nb Fe
1 1 1 9
direct
   0.9999360000000000    0.9999360000000000    0.0001920000000000 Gd
   0.8568820000000000    0.8568820000000000    0.4293540000000000 Sc
   0.1435860000000000    0.1435860000000000    0.5692410000000000 Nb
   0.0825610000000000    0.5865280000000000    0.7443820000000000 Fe
   0.5865280000000000    0.5865280000000000    0.7443820000000000 Fe
   0.5865280000000000    0.0825610000000000    0.7443820000000000 Fe
   0.9175810000000000    0.4131910000000000    0.2560380000000000 Fe
   0.4131910000000000    0.4131910000000000    0.2560380000000000 Fe
   0.4131910000000000    0.9175810000000000    0.2560380000000000 Fe
   0.3330200000000000    0.3330200000000000    0.0009410000000000 Fe
   0.6671350000000000    0.6671350000000000    0.9985910000000000 Fe
   0.4998590000000000    0.4998590000000000    0.5004220000000000 Fe
