Gd1 Y3 Fe13 Co1
1.0
   4.9818701563923096    0.0000000000000000   11.2408968854064035
   2.3793331464953922    4.3769634292580273   11.2408968347297389
   0.0000000000000000    0.0000000000000000   12.2953974699999993
Gd Y Fe Co
1 3 13 1
direct
   0.8505050000000000    0.8505050000000000    0.8505050000000000 Gd
   0.9475800000000000    0.9475800000000000    0.9475800000000000 Y
   0.1497910000000000    0.1497910000000000    0.1497910000000000 Y
   0.0522390000000000    0.0522390000000000    0.0522390000000000 Y
   0.6125600000000000    0.6125600000000000    0.6125600000000000 Fe
   0.3874660000000000    0.3874660000000000    0.3874660000000000 Fe
   0.1081430000000000    0.6093550000000000    0.6093550000000000 Fe
   0.3908500000000000    0.3908500000000000    0.8911660000000000 Fe
   0.6093550000000000    0.6093550000000000    0.1081430000000000 Fe
   0.6093550000000000    0.1081430000000000    0.6093550000000000 Fe
   0.3908500000000000    0.8911660000000000    0.3908500000000000 Fe
   0.5000210000000000    0.0000180000000000    0.5000210000000000 Fe
   0.7209980000000000    0.7209980000000000    0.7209980000000000 Fe
   0.8911660000000000    0.3908500000000000    0.3908500000000000 Fe
   0.0000180000000000    0.5000210000000000    0.5000210000000000 Fe
   0.2789660000000000    0.2789660000000000    0.2789660000000000 Fe
   0.5000210000000000    0.5000210000000000    0.0000180000000000 Fe
   0.5001160000000000    0.5001160000000000    0.5001160000000000 Co
