Gd3 Y1 Fe20 P12
1.0
   3.6536830000000000    0.0000000000000000    0.0000000000000002
  -0.0000000000000006   10.2987314829879288   -0.0037617424333908
   0.0000000000000000    0.0000000000000000   11.8177722000000003
Gd Y Fe P
3 1 20 12
direct
   0.2500000000000000    0.9193200000000000    0.2043570000000000 Gd
   0.7500000000000000    0.4190810000000000    0.2955740000000000 Gd
   0.7500000000000000    0.0806770000000000    0.7955510000000000 Gd
   0.2500000000000000    0.5809680000000000    0.7046160000000000 Y
   0.2500000000000000    0.7081250000000000    0.9887470000000000 Fe
   0.2500000000000000    0.7920120000000000    0.4886420000000000 Fe
   0.7500000000000000    0.2918330000000000    0.0113420000000000 Fe
   0.7500000000000000    0.2080060000000000    0.5112480000000000 Fe
   0.2500000000000000    0.4051330000000000    0.4903960000000000 Fe
   0.2500000000000000    0.0948240000000000    0.9904370000000000 Fe
   0.7500000000000000    0.5948280000000000    0.5093400000000000 Fe
   0.7500000000000000    0.9052260000000000    0.0095290000000000 Fe
   0.2500000000000000    0.2190170000000000    0.1767250000000000 Fe
   0.2500000000000000    0.2808020000000000    0.6766690000000000 Fe
   0.7500000000000000    0.7809910000000000    0.8234200000000000 Fe
   0.7500000000000000    0.7190750000000000    0.3232630000000000 Fe
   0.2500000000000000    0.8759980000000001    0.7012140000000000 Fe
   0.2500000000000000    0.6242510000000000    0.2012240000000000 Fe
   0.7500000000000000    0.1243260000000000    0.2987120000000000 Fe
   0.7500000000000000    0.3755270000000000    0.7989010000000000 Fe
   0.2500000000000000    0.4632240000000000    0.9325710000000000 Fe
   0.2500000000000000    0.0367660000000000    0.4323260000000000 Fe
   0.7500000000000000    0.5365620000000000    0.0676770000000000 Fe
   0.7500000000000000    0.9635270000000000    0.5674960000000000 Fe
   0.2500000000000000    0.4215290000000000    0.1123550000000000 P
   0.2500000000000000    0.0783440000000000    0.6123080000000000 P
   0.7500000000000000    0.5783410000000000    0.8879990000000000 P
   0.7500000000000000    0.9217520000000000    0.3876520000000000 P
   0.2500000000000000    0.2661720000000000    0.8720360000000000 P
   0.2500000000000000    0.2337870000000000    0.3720750000000000 P
   0.7500000000000000    0.7338370000000000    0.1278960000000000 P
   0.7500000000000000    0.7664830000000000    0.6279920000000000 P
   0.2500000000000000    0.6009440000000000    0.3965520000000000 P
   0.2500000000000000    0.8989760000000000    0.8965100000000000 P
   0.7500000000000000    0.3987490000000000    0.6033290000000000 P
   0.7500000000000000    0.1009870000000000    0.1033190000000000 P
