Gd4 Fe14
1.0
   4.9451308662699089    0.0000000000000000    1.0415974839450468
   2.3628687546125953    4.3440938311961741    1.0415963261750758
   0.0000000000000000    0.0000000000000000   12.2596607399999993
Gd Fe
4 14
direct
   0.9478040000000000    0.9478040000000000    0.1565870000000000 Gd
   0.0521960000000000    0.0521960000000000    0.8434130000000000 Gd
   0.8504590000000000    0.8504590000000000    0.4486250000000000 Gd
   0.1495410000000000    0.1495410000000000    0.5513749999999999 Gd
   0.5000000000000000    0.5000000000000000    0.5000000000000000 Fe
   0.7214710000000000    0.7214710000000000    0.8355880000000000 Fe
   0.2785290000000000    0.2785290000000000    0.1644120000000000 Fe
   0.6123380000000000    0.6123380000000000    0.1629860000000000 Fe
   0.3876620000000000    0.3876620000000000    0.8370140000000000 Fe
   0.0000000000000000    0.5000000000000000    0.0000000000000000 Fe
   0.5000000000000000    0.0000000000000000    0.0000000000000000 Fe
   0.5000000000000000    0.5000000000000000    0.0000000000000000 Fe
   0.3902360000000000    0.3902360000000000    0.3289930000000000 Fe
   0.8905340000000000    0.3902360000000000    0.3289930000000000 Fe
   0.3902360000000000    0.8905340000000000    0.3289930000000000 Fe
   0.6097640000000000    0.6097640000000000    0.6710070000000000 Fe
   0.1094660000000000    0.6097640000000000    0.6710070000000000 Fe
   0.6097640000000000    0.1094660000000000    0.6710070000000000 Fe
