Gd2 Lu2 Fe20 P12
1.0
   3.6401230000000000    0.0000000000000000    0.0000000000000002
  -0.0000000000000006   10.2677150000000008    0.0000000000000006
   0.0000000000000000    0.0000000000000000   11.7910540000000008
Gd Lu Fe P
2 2 20 12
direct
   0.7500000000000000    0.4195100000000000    0.2955260000000000 Gd
   0.7500000000000000    0.0804900000000000    0.7955260000000000 Gd
   0.2500000000000000    0.5804980000000000    0.7044240000000001 Lu
   0.2500000000000000    0.9195020000000000    0.2044240000000000 Lu
   0.2500000000000000    0.7080959999999999    0.9890860000000000 Fe
   0.2500000000000000    0.7919040000000001    0.4890860000000000 Fe
   0.7500000000000000    0.2918520000000000    0.0111600000000000 Fe
   0.7500000000000000    0.2081480000000000    0.5111599999999999 Fe
   0.2500000000000000    0.4056780000000000    0.4908400000000000 Fe
   0.2500000000000000    0.0943220000000000    0.9908400000000001 Fe
   0.7500000000000000    0.5948360000000000    0.5108640000000000 Fe
   0.7500000000000000    0.9051640000000000    0.0108640000000000 Fe
   0.2500000000000000    0.2186830000000000    0.1766170000000000 Fe
   0.2500000000000000    0.2813170000000000    0.6766170000000000 Fe
   0.7500000000000000    0.7798530000000000    0.8233150000000000 Fe
   0.7500000000000000    0.7201470000000000    0.3233150000000000 Fe
   0.2500000000000000    0.8747420000000000    0.7012770000000000 Fe
   0.2500000000000000    0.6252580000000000    0.2012770000000000 Fe
   0.7500000000000000    0.1232920000000000    0.2979620000000000 Fe
   0.7500000000000000    0.3767080000000000    0.7979619999999999 Fe
   0.2500000000000000    0.4639130000000000    0.9316640000000000 Fe
   0.2500000000000000    0.0360870000000000    0.4316640000000000 Fe
   0.7500000000000000    0.5373230000000000    0.0671760000000000 Fe
   0.7500000000000000    0.9626770000000000    0.5671760000000000 Fe
   0.2500000000000000    0.4218650000000000    0.1122030000000000 P
   0.2500000000000000    0.0781350000000000    0.6122030000000001 P
   0.7500000000000000    0.5781620000000000    0.8861790000000001 P
   0.7500000000000000    0.9218380000000000    0.3861790000000000 P
   0.2500000000000000    0.2660580000000000    0.8722390000000000 P
   0.2500000000000000    0.2339420000000000    0.3722390000000000 P
   0.7500000000000000    0.7352310000000000    0.1287290000000000 P
   0.7500000000000000    0.7647690000000000    0.6287290000000000 P
   0.2500000000000000    0.6013100000000000    0.3966460000000000 P
   0.2500000000000000    0.8986900000000000    0.8966460000000001 P
   0.7500000000000000    0.4005070000000000    0.6040930000000000 P
   0.7500000000000000    0.0994930000000000    0.1040930000000000 P
