Gd1 Y3 Co6
1.0
   5.4209871667099172    0.0000000000000000    0.0001888676699861
  -2.7608686772354116    4.6652658865169165   -0.0001887512939786
   0.0000000000000000    0.0000000000000000    7.0295660000000000
Gd Y Co
1 3 6
direct
   0.3369220000000000    0.6630800000000000    0.0975010000000000 Gd
   0.8368370000000001    0.1631650000000000    0.4026010000000000 Y
   0.1631670000000000    0.8368350000000000    0.5974750000000000 Y
   0.6632340000000000    0.3367680000000000    0.9023440000000000 Y
   0.9999570000000000    0.0000430000000000    0.9999280000000000 Co
   0.3346820000000000    0.1654040000000000    0.2499290000000000 Co
   0.8345950000000000    0.6653180000000000    0.2499290000000000 Co
   0.5000170000000000    0.4999850000000000    0.5000240000000000 Co
   0.1653490000000000    0.3347560000000000    0.7501340000000000 Co
   0.6652439999999999    0.8346500000000000    0.7501340000000000 Co
