Gd1 Fe4 Si1
1.0
   4.9379573900000002    0.0000000000000000    0.0000000000000003
  -2.4477966691398798    4.2885553797366081    0.0000000000000003
   0.0000000000000000    0.0000000000000000    3.9414250000000002
Gd Fe Si
1 4 1
direct
   0.0000000000000000    0.0000000000000000    0.0000000000000000 Gd
   0.3326870000000000    0.6673130000000000    0.0000000000000000 Fe
   0.6673130000000000    0.3326870000000000    0.0000000000000000 Fe
   0.5000000000000000    0.0000000000000000    0.5000000000000000 Fe
   0.0000000000000000    0.5000000000000000    0.5000000000000000 Fe
   0.5000000000000000    0.5000000000000000    0.5000000000000000 Si
