Gd4 Co6
1.0
   5.3696919924145776    0.0000000000000000   -0.0058600433360884
  -2.7317550658642551    4.6229047900826963    0.0109786221675414
   0.0000000000000000    0.0000000000000000    6.9639510099999997
Gd Co
4 6
direct
   0.3374020000000000    0.6625000000000000    0.5972100000000000 Gd
   0.8372520000000000    0.1628360000000000    0.9025080000000000 Gd
   0.1623720000000000    0.8376960000000000    0.0987790000000000 Gd
   0.6620279999999999    0.3379170000000000    0.4014720000000000 Gd
   0.5008550000000001    0.4991700000000000    0.0009710000000000 Co
   0.1626860000000000    0.3366410000000000    0.2497760000000000 Co
   0.6633289999999999    0.8373200000000000    0.2497810000000000 Co
   0.0007810000000000    0.9991940000000000    0.4990650000000000 Co
   0.3363610000000000    0.1630100000000000    0.7502150000000000 Co
   0.8369380000000000    0.6637170000000000    0.7502190000000000 Co
