Gd1 Zr1 Mn1 Fe11 P7
1.0
   8.9162576900000001    0.0000000000000000    0.0000000000000005
  -4.4641998797132381    7.7289597071154805    0.0000000000000005
   0.0000000000000000    0.0000000000000000    3.6026899999999999
Gd Zr Mn Fe P
1 1 1 11 7
direct
   0.6654690000000000    0.3324950000000000    0.5000000000000000 Gd
   0.9999540000000000    0.9987020000000000    0.0000000000000000 Zr
   0.1160360000000000    0.5507210000000000    0.5000000000000000 Mn
   0.7034710000000000    0.6104360000000000    0.0000000000000000 Fe
   0.3898400000000000    0.0944050000000000    0.0000000000000000 Fe
   0.9057040000000000    0.2949210000000000    0.0000000000000000 Fe
   0.2142650000000000    0.3926980000000000    0.0000000000000000 Fe
   0.6098730000000000    0.8228839999999999    0.0000000000000000 Fe
   0.1789840000000000    0.7863710000000000    0.0000000000000000 Fe
   0.2781900000000000    0.2289980000000000    0.5000000000000000 Fe
   0.7699450000000000    0.0476360000000000    0.5000000000000000 Fe
   0.9502910000000000    0.7211040000000000    0.5000000000000000 Fe
   0.4517320000000000    0.5681550000000000    0.5000000000000000 Fe
   0.4333690000000000    0.8873850000000000    0.5000000000000000 Fe
   0.4466330000000000    0.3686070000000000    0.0000000000000000 P
   0.6313770000000000    0.0786130000000000    0.0000000000000000 P
   0.9189780000000000    0.5529260000000000    0.0000000000000000 P
   0.0416470000000000    0.2563690000000000    0.5000000000000000 P
   0.7369000000000000    0.7801450000000000    0.5000000000000000 P
   0.2198100000000000    0.9571360000000000    0.5000000000000000 P
   0.3375300000000000    0.6692960000000000    0.0000000000000000 P
