Gd2 Co8 B2
1.0
   5.0474788300000002    0.0000000000000000    0.0000000000000003
  -2.5237437847195205    4.3712457176156763    0.0000000000000003
   0.0000000000000000    0.0000000000000000    6.7655515299999998
Gd Co B
2 8 2
direct
   0.9999990000000000    0.0000000000000000    0.5000000000000000 Gd
   0.0000010000000000    0.0000010000000000    0.0000000000000000 Gd
   0.3333333333333333    0.6666666666666666    0.0000000000000000 Co
   0.6666666666666666    0.3333333333333333    0.0000000000000000 Co
   0.4999993500000000    0.9999987000000000    0.2853919600000000 Co
   0.4999993500000000    0.5000006500000000    0.2853919600000000 Co
   0.0000013000000000    0.5000006500000000    0.2853939600000000 Co
   0.4999993500000000    0.9999987000000000    0.7146080400000000 Co
   0.4999993500000000    0.5000006500000000    0.7146080400000000 Co
   0.0000013000000000    0.5000006500000000    0.7146060400000001 Co
   0.6666666666666666    0.3333333333333333    0.5000000000000000 B
   0.3333333333333333    0.6666666666666666    0.5000000000000000 B
