Gd4 Fe7 Co7
1.0
   4.9763166600004007    0.0000000000000000    1.0484112557830680
   2.4068765993476293    4.3746772174906567    1.0605235382092113
   0.0000000000000000    0.0000000000000000   12.2606891800000000
Gd Fe Co
4 7 7
direct
   0.0514600000000000    0.0509560000000000    0.8454380000000000 Gd
   0.9483020000000000    0.9492810000000000    0.1543320000000000 Gd
   0.1519660000000000    0.1482240000000000    0.5514490000000000 Gd
   0.8530640000000000    0.8524960000000000    0.4427040000000000 Gd
   0.5043350000000000    0.4988580000000000    0.4983250000000000 Fe
   0.2762700000000000    0.2808170000000000    0.1666080000000000 Fe
   0.7204130000000000    0.7192200000000000    0.8365130000000000 Fe
   0.3880170000000000    0.3889940000000000    0.8362190000000000 Fe
   0.6120280000000000    0.6094420000000000    0.1676440000000000 Fe
   0.5002750000000000    0.9988890000000000    0.0012230000000000 Fe
   0.1046100000000000    0.6131270000000000    0.6696940000000000 Fe
   0.4997680000000000    0.4991810000000000    0.0015180000000000 Co
   0.9991160000000000    0.4999510000000000    0.0008490000000000 Co
   0.6094550000000000    0.6098330000000000    0.6695310000000000 Co
   0.6087450000000000    0.1108860000000000    0.6710210000000000 Co
   0.8914010000000000    0.3895410000000000    0.3297520000000000 Co
   0.3898550000000000    0.3897220000000000    0.3293170000000000 Co
   0.3909200000000000    0.8905820000000000    0.3278650000000000 Co
